15

C     -3.2591321266   -0.2756421150   -0.0392280296
C     -1.9527669053    0.5226769777   -0.0885531780
H     -3.2087033254   -1.1805324028   -0.6801768155
H     -4.1270999623    0.3313156932   -0.3989954600
H     -3.4999933719   -0.6046335072    0.9939124156
H     -2.0388594496    1.4348536069    0.5434607630
H     -1.7445319043    0.8619097755   -1.1247746108
C     -0.7136303112   -0.2557713760    0.3851568971
C      0.5636491249    0.5303732478    0.3824621900
C      1.6603823372    0.2315581060   -0.3405516699
H     -0.5967353212   -1.1676005127   -0.2423961950
H     -0.9595671301   -0.5863124717    1.4199698459
H      0.5864994121    1.4288274257    1.0290899861
H      1.6912918837   -0.6588317891   -0.9946253835
H      2.5681703146    0.8591330843   -0.3039596016
