15

C     -3.1526367800   -0.2835918300   -0.0284284700
C     -1.8323249800    0.4879525700   -0.0609885700
H     -3.1038629800   -1.1910923300   -0.6661360700
H     -3.9971896800    0.3359148700   -0.3912049700
H     -3.3983981800   -0.6176242300    1.0015835300
H     -1.9171027800    1.4068572700    0.5608177300
H     -1.6195465800    0.8384067700   -1.0943217700
C     -0.8246096000   -0.2182411000    0.3582968000
C      0.4680211000    0.5469182000    0.3680330000
C      1.5640666000    0.2318494000   -0.3428217000
H     -0.7176877000   -1.1296157000   -0.2695937000
H     -1.0507737000   -0.5723911000    1.3911028000
H      0.4873929000    1.4500605000    1.0065506000
H      1.5859727000   -0.6573213000   -0.9943267000
H      2.4776551000    0.8432399000   -0.2977744000
