15

C     -3.1880810996   -0.2810807492   -0.0319607641
C     -1.8719883166    0.4995039189   -0.0701522921
H     -3.1389784331   -1.1876430512   -0.6708605047
H     -4.0406771595    0.3344564945   -0.3938419639
H     -3.4324429928   -0.6133414931    0.9990963015
H     -1.9577404312    1.4162122141    0.5551036121
H     -1.6612688128    0.8462403364   -1.1045729676
C     -0.7881096254   -0.2307183992    0.3671151655
C      0.4998437307    0.5415137372    0.3727247680
C      1.5962267294    0.2317822568   -0.3420558018
H     -0.6773154784   -1.1423243142   -0.2606030492
H     -1.0204033413   -0.5769974065    1.4009553329
H      0.5205874688    1.4429711619    1.0141539459
H      1.6212279737   -0.6578605760   -0.9944754621
H      2.5080945360    0.8486084558   -0.2998371788
