15

C     -4.4927048213   -0.1318137532   -0.1878666437
C     -3.4791100878    0.9162977730   -0.4054094836
H     -4.3377913011   -1.0320716012   -0.8224813928
H     -5.5299838680    0.2489940060   -0.4708045229
H     -4.5875978237   -0.4378056484    0.8780399197
H     -3.4065514132    1.7443053053    0.3158746866
H     -3.1475425601    1.1314956813   -1.4318845317
C      0.6992581027   -0.6857141708    0.7387289177
C      1.6809135247    0.3035392074    0.5858677637
C      2.7302398225    0.2174223311   -0.3121836351
H      0.7595056463   -1.5813044594    0.0980358082
H      0.1008271159   -0.7622629682    1.6565213945
H      1.6535721405    1.1916071809    1.2497687382
H      2.8330856168   -0.6615000532   -0.9786584475
H      3.4928231729    1.0101269794   -0.3727359748
