15

C     -4.3822216844   -0.1462672614   -0.1738573566
C     -3.3418893388    0.8826303047   -0.3778978641
H     -4.2395026584   -1.0463819621   -0.8105168582
H     -5.4084909853    0.2574216290   -0.4651518778
H     -4.4931909795   -0.4533630399    0.8895587655
H     -3.2853856604    1.7171706749    0.3374110313
H     -3.0230706337    1.1072608716   -1.4060385861
C      0.5732312526   -0.6486956093    0.7063541515
C      1.5798321772    0.3245247822    0.5671616360
C      2.6366597547    0.2190262248   -0.3155017773
H      0.6396092589   -1.5452898360    0.0664831486
H      0.0046207910   -0.7454958712    1.6389483344
H      1.5607332879    1.2125616204    1.2315225712
H      2.7334831618   -0.6618690277   -0.9807972757
H      3.4145271705    0.9980836430   -0.3668659997
