61
charge=+2 spin=0
Ru -0.02822 4.05709 0.99126
N  -1.96876 3.84916 1.39542
C  -2.96886 3.88890 0.48472
C  -2.29879 3.71023 2.71283
C  -4.30521 3.78869 0.83907
H  -2.66368 3.99727 -0.54935
C  -3.62883 3.60846 3.12497
C  -4.64639 3.64626 2.18325
H  -5.06466 3.82347 0.06737
H  -3.86544 3.50592 4.17663
N   0.04727 3.86237 2.97334
C  -1.14721 3.67218 3.60647
C   1.17681 3.85057 3.71843
C  -1.21775 3.47157 4.98632
C   1.16321 3.65934 5.09127
H   2.10252 4.00794 3.17763
C  -0.05450 3.46522 5.74163
H  -2.17677 3.31598 5.46442
H   2.09811 3.66244 5.63850
H  -5.68280 3.56865 2.48879
H  -0.09432 3.31049 6.81308
N  -0.37982 6.01853 0.95388
C  -0.47824 6.81916 2.04037
C  -0.58933 6.57021 -0.27720
C  -0.77630 8.16972 1.94755
H  -0.30200 6.34250 2.99739
C  -0.89587 7.92397 -0.42745
C  -0.99050 8.73701 0.69225
H  -0.83948 8.76426 2.85088
H  -1.06457 8.33659 -1.41425
N  -0.21883 4.33987 -0.97240
C  -0.45253 5.62264 -1.37699
C  -0.08278 3.38348 -1.92001
C  -0.55317 5.95421 -2.72946
C  -0.17718 3.65732 -3.27557
H   0.09882 2.37900 -1.55640
C  -0.41619 4.96586 -3.69283
H  -0.73206 6.98030 -3.02547
H  -0.06299 2.85166 -3.99067
H  -0.49171 5.20882 -4.74582
H  -1.22785 9.78908  0.59053
C  -0.08781 -0.22991 1.06835
C   1.25500 -0.55355 0.87964
C   2.16774  0.47697 0.71044
C   1.72857  1.80210 0.72989
C  -0.46954  1.10258 1.08258
C   2.58996  2.96517 0.55255
C   3.95856  2.90734 0.28272
C   4.68325  4.08171 0.14362
H   5.74564  4.05180 -0.06604
C   4.01396  5.29735  0.27688
C   2.65328  5.29782  0.54146
H  -0.83742 -0.99993  1.20493
H   1.58172 -1.58632  0.86702
H  -1.50368  1.39403  1.22320
H   4.53712  6.24061  0.17653
H   2.09869  6.22178  0.65508
N   1.93825  4.15769  0.68279
N   0.41257  2.11490  0.91452
H   4.45148  1.94904  0.17695
H   3.21805  0.25468  0.56927