15

C     -4.0892184377   -0.1843550213   -0.1368071791
C     -2.9732666291    0.7910926338   -0.3035969754
H     -3.9777075513   -1.0837195988   -0.7783000158
H     -5.0835783771    0.2793252099   -0.4496584794
H     -4.2415717373   -0.4942913646    0.9192920578
H     -2.9635615762    1.6448454440    0.3937582176
H     -2.6927995513    1.0432208595   -1.3366489390
C      0.2330412781   -0.5481007579    0.6196216937
C      1.3127076955    0.3805525577    0.5169022418
C      2.3866825524    0.2230801952   -0.3231369793
H      0.3208099883   -1.4490632711   -0.0164984765
H     -0.2487072699   -0.7020854715    1.5905725965
H      1.3133913588    1.2682360932    1.1822859746
H      2.4681689463   -0.6624319629   -0.9860970987
H      3.2045609161    0.9650156085   -0.3508798944
