15

C     -3.6895531798   -0.2332317701   -0.0875933807
C     -2.4700692109    0.6628734000   -0.2004072701
H     -3.6155241336   -1.1328208229   -0.7329848913
H     -4.6327943658    0.3071414584   -0.4270390742
H     -3.8929656746   -0.5489779877    0.9577987880
H     -2.5223456210    1.5451515511    0.4683964011
H     -2.2404013398    0.9561412610   -1.2389755411
C     -0.2340321893   -0.4079659983    0.5027536101
C      0.9509568601    0.4559439088    0.4488647589
C      2.0414288491    0.2281541070   -0.3318348439
H     -0.1167389174   -1.3160339940   -0.1276986828
H     -0.5915234155   -0.6448745472    1.5177747469
H      0.9710766570    1.3447264265    1.1123701082
H      2.1015200663   -0.6621117094   -0.9920482271
H      2.9099280245    0.9172099158   -0.3285748192
