[Molden Format]
[N_Atoms]
                    2
[Atoms] (AU)
C1          1      6           0.00000000      0.00000000      0.00000000
O2          2      8           0.00000000      0.00000000      2.13217799
[5D]
[Charge] (Mulliken)
  0.16875917420120423     
 -0.16875917420121667     
[GTO] (AU)
   1
   s   5
  1.238401694E+03  5.517365048E-03
  1.862900499E+02  4.108882856E-02
  4.225117635E+01  1.822538213E-01
  1.167655793E+01  4.682845944E-01
  3.593050648E+00  4.457581734E-01
   s   1
  4.024514736E-01  1.000000000E+00
   s   1
  1.309018267E-01  1.000000000E+00
   p   3
  9.468097062E+00  5.688833201E-02
  2.010354514E+00  3.129405934E-01
  5.477100471E-01  7.606501651E-01
   p   1
  1.526861379E-01  1.000000000E+00
   d   1
  8.000000000E-01  1.000000000E+00
 
   2
   s   5
  2.266176779E+03 -5.389350392E-03
  3.408701019E+02 -4.023472139E-02
  7.736313517E+01 -1.800818421E-01
  2.147964494E+01 -4.682885766E-01
  6.658943312E+00 -4.469261716E-01
   s   1
  8.097597567E-01  1.000000000E+00
   s   1
  2.553077223E-01  1.000000000E+00
   p   3
  1.772150432E+01  6.263024876E-02
  3.863550544E+00  3.333113848E-01
  1.048092088E+00  7.414863831E-01
   p   1
  2.764154441E-01  1.000000000E+00
   d   1
  1.200000000E+00  1.000000000E+00
 
[MO]
Sym=     1a  
Ene=   -20.6670
Spin= Alpha
Occup=    2.00000
   1        -0.00029843
   2        -0.00021271
   3        -0.00732736
   4        -0.00000000
   5        -0.00000000
   6         0.00152904
   7        -0.00000000
   8         0.00000000
   9        -0.00520226
  10         0.00167159
  11        -0.00000000
  12         0.00000000
  13         0.00000002
  14        -0.00000000
  15         0.99027615
  16        -0.03476059
  17         0.01979101
  18         0.00000000
  19         0.00000000
  20         0.00296000
  21         0.00000000
  22         0.00000000
  23        -0.00374915
  24        -0.00087506
  25         0.00000000
  26        -0.00000000
  27        -0.00000012
  28        -0.00000000
Sym=     2a  
Ene=   -11.3690
Spin= Alpha
Occup=    2.00000
   1         0.99170330
   2         0.03146037
   3        -0.00579657
   4         0.00000000
   5         0.00000000
   6         0.00448805
   7        -0.00000000
   8         0.00000000
   9         0.00228182
  10         0.00222650
  11        -0.00000000
  12        -0.00000000
  13        -0.00000001
  14        -0.00000000
  15         0.00077830
  16         0.00003162
  17        -0.00628866
  18         0.00000000
  19        -0.00000000
  20        -0.00011803
  21         0.00000000
  22        -0.00000000
  23         0.00491681
  24         0.00052635
  25        -0.00000000
  26         0.00000000
  27        -0.00000000
  28        -0.00000000
Sym=     3a  
Ene=    -1.5091
Spin= Alpha
Occup=    2.00000
   1        -0.14508227
   2         0.27307157
   3         0.01468680
   4        -0.00000000
   5        -0.00000000
   6         0.21786819
   7         0.00000000
   8         0.00000000
   9         0.00352829
  10         0.03834740
  11        -0.00000000
  12        -0.00000000
  13        -0.00000010
  14         0.00000000
  15         0.26548625
  16         0.52254464
  17         0.26180445
  18         0.00000000
  19        -0.00000000
  20        -0.16814188
  21         0.00000000
  22        -0.00000000
  23        -0.02566276
  24         0.01943985
  25        -0.00000000
  26        -0.00000000
  27        -0.00000198
  28        -0.00000000
Sym=     4a  
Ene=    -0.7978
Spin= Alpha
Occup=    2.00000
   1         0.16225665
   2        -0.36427001
   3        -0.07237919
   4         0.00000000
   5        -0.00000000
   6        -0.13807932
   7         0.00000000
   8        -0.00000000
   9         0.03081056
  10        -0.01893953
  11        -0.00000000
  12        -0.00000000
  13        -0.00000046
  14         0.00000000
  15         0.14562147
  16         0.31334095
  17         0.34766088
  18        -0.00000000
  19        -0.00000000
  20         0.50420920
  21        -0.00000000
  22        -0.00000000
  23         0.24910825
  24        -0.02363410
  25         0.00000000
  26         0.00000000
  27        -0.00000213
  28        -0.00000000
Sym=     5a  
Ene=    -0.6430
Spin= Alpha
Occup=    2.00000
   1         0.00000000
   2        -0.00000000
   3         0.00000000
   4        -0.00000000
   5         0.29572119
   6        -0.00000000
   7        -0.00000000
   8         0.12206225
   9        -0.00000000
  10        -0.00000000
  11        -0.00000000
  12         0.05277814
  13         0.00000000
  14        -0.00000000
  15         0.00000000
  16         0.00000000
  17         0.00000000
  18        -0.00000000
  19         0.55021249
  20         0.00000000
  21        -0.00000000
  22         0.36987555
  23         0.00000000
  24         0.00000000
  25         0.00000000
  26        -0.03227973
  27        -0.00000000
  28         0.00000000
Sym=     6a  
Ene=    -0.6430
Spin= Alpha
Occup=    2.00000
   1         0.00000000
   2        -0.00000000
   3        -0.00000000
   4         0.29572776
   5         0.00000000
   6        -0.00000000
   7         0.12205525
   8         0.00000000
   9        -0.00000000
  10         0.00000000
  11         0.05277882
  12         0.00000000
  13        -0.00000000
  14        -0.00000000
  15         0.00000000
  16         0.00000000
  17         0.00000000
  18         0.55021675
  19         0.00000000
  20         0.00000000
  21         0.36987169
  22         0.00000000
  23        -0.00000000
  24        -0.00000000
  25        -0.03228009
  26        -0.00000000
  27         0.00000000
  28         0.00000000
Sym=     7a  
Ene=    -0.5510
Spin= Alpha
Occup=    2.00000
   1        -0.18545146
   2         0.41069962
   3         0.47528325
   4         0.00000000
   5        -0.00000000
   6        -0.45494397
   7         0.00000000
   8        -0.00000000
   9        -0.16360245
  10        -0.03130147
  11         0.00000000
  12        -0.00000000
  13         0.00000001
  14         0.00000000
  15        -0.02221948
  16        -0.05092296
  17        -0.00372547
  18         0.00000000
  19        -0.00000000
  20         0.23414920
  21        -0.00000000
  22        -0.00000000
  23         0.12415192
  24        -0.00786381
  25        -0.00000000
  26        -0.00000000
  27        -0.00000122
  28        -0.00000000
Sym=     8a  
Ene=     0.1474
Spin= Alpha
Occup=    0.00000
   1        -0.00000000
   2         0.00000000
   3        -0.00000000
   4        -0.44647433
   5        -0.00000000
   6        -0.00000000
   7        -0.76736260
   8        -0.00000000
   9        -0.00000000
  10         0.00000000
  11         0.01264058
  12         0.00000000
  13        -0.00000000
  14         0.00000000
  15         0.00000000
  16         0.00000000
  17         0.00000000
  18         0.34829084
  19         0.00000000
  20         0.00000000
  21         0.49859970
  22         0.00000000
  23         0.00000000
  24        -0.00000000
  25         0.00976553
  26         0.00000000
  27         0.00000000
  28        -0.00000000
Sym=     9a  
Ene=     0.1474
Spin= Alpha
Occup=    0.00000
   1        -0.00000000
   2         0.00000000
   3        -0.00000000
   4         0.00000000
   5        -0.44648277
   6         0.00000000
   7         0.00000000
   8        -0.76734176
   9        -0.00000000
  10         0.00000000
  11        -0.00000000
  12         0.01265082
  13         0.00000000
  14        -0.00000000
  15         0.00000000
  16         0.00000000
  17        -0.00000000
  18        -0.00000000
  19         0.34830963
  20         0.00000000
  21        -0.00000000
  22         0.49857156
  23         0.00000000
  24        -0.00000000
  25        -0.00000000
  26         0.00976927
  27        -0.00000000
  28         0.00000000
Sym=    10a  
Ene=     0.3542
Spin= Alpha
Occup=    0.00000
   1        -0.04387037
   2         0.27612030
   3        -2.03369084
   4         0.00000000
   5         0.00000000
   6        -0.13666888
   7         0.00000000
   8         0.00000000
   9        -1.73468109
  10        -0.00485830
  11        -0.00000000
  12         0.00000000
  13        -0.00000082
  14        -0.00000000
  15         0.09504185
  16         0.09862808
  17         2.03783983
  18        -0.00000000
  19         0.00000000
  20        -0.03775103
  21        -0.00000000
  22        -0.00000000
  23        -0.56302570
  24         0.03151571
  25        -0.00000000
  26        -0.00000000
  27         0.00000459
  28         0.00000000
Sym=    11a  
Ene=     0.5621
Spin= Alpha
Occup=    0.00000
   1        -0.26867296
   2         1.49372151
   3        -1.10402970
   4         0.00000000
   5         0.00000000
   6        -0.38173308
   7        -0.00000000
   8         0.00000000
   9         0.81225888
  10        -0.02577576
  11         0.00000000
  12         0.00000000
  13         0.00000049
  14        -0.00000000
  15        -0.02554161
  16        -0.05298012
  17        -0.32535023
  18         0.00000000
  19         0.00000000
  20         0.10397186
  21         0.00000000
  22        -0.00000000
  23         0.17330844
  24         0.00459581
  25        -0.00000000
  26        -0.00000000
  27         0.00000108
  28         0.00000000
Sym=    12a  
Ene=     0.6701
Spin= Alpha
Occup=    0.00000
   1        -0.00000000
   2         0.00000000
   3        -0.00000000
   4        -0.00000000
   5        -1.03563699
   6        -0.00000000
   7         0.00000000
   8         1.02457105
   9        -0.00000000
  10         0.00000000
  11        -0.00000000
  12        -0.03209034
  13        -0.00000000
  14        -0.00000000
  15        -0.00000000
  16        -0.00000000
  17         0.00000000
  18         0.00000000
  19         0.00408298
  20        -0.00000000
  21        -0.00000000
  22        -0.01987236
  23        -0.00000000
  24        -0.00000000
  25         0.00000000
  26         0.04996218
  27        -0.00000000
  28         0.00000000
Sym=    13a  
Ene=     0.6701
Spin= Alpha
Occup=    0.00000
   1        -0.00000000
   2         0.00000000
   3        -0.00000000
   4        -1.03563872
   5         0.00000000
   6        -0.00000000
   7         1.02457042
   8        -0.00000000
   9         0.00000000
  10         0.00000000
  11        -0.03208359
  12         0.00000000
  13        -0.00000000
  14         0.00000000
  15        -0.00000000
  16        -0.00000000
  17         0.00000000
  18         0.00409526
  19        -0.00000000
  20         0.00000000
  21        -0.01987597
  22         0.00000000
  23         0.00000000
  24         0.00000000
  25         0.04996332
  26        -0.00000000
  27         0.00000000
  28         0.00000000
Sym=    14a  
Ene=     0.9904
Spin= Alpha
Occup=    0.00000
   1        -0.14583846
   2         1.21980585
   3         0.09745534
   4        -0.00000000
   5         0.00000000
   6         0.96234603
   7        -0.00000000
   8         0.00000000
   9        -0.18711887
  10        -0.03216806
  11         0.00000000
  12        -0.00000000
  13        -0.00000179
  14         0.00000000
  15        -0.14353030
  16        -0.45145573
  17        -0.44594261
  18        -0.00000000
  19        -0.00000000
  20        -0.11179691
  21         0.00000000
  22         0.00000000
  23         1.42745351
  24         0.09247435
  25         0.00000000
  26         0.00000000
  27         0.00000289
  28         0.00000000
Sym=    15a  
Ene=     1.1332
Spin= Alpha
Occup=    0.00000
   1        -0.08019639
   2         0.03324236
   3        -0.25935021
   4        -0.00000000
   5        -0.00000000
   6         0.51177777
   7        -0.00000000
   8         0.00000000
   9        -0.33693631
  10        -0.30989990
  11         0.00000000
  12         0.00000000
  13         0.00000324
  14         0.00000000
  15         0.02514741
  16         0.19940606
  17        -0.02170067
  18        -0.00000000
  19         0.00000000
  20         0.83494644
  21         0.00000000
  22        -0.00000000
  23        -0.74360276
  24         0.09720934
  25         0.00000000
  26         0.00000000
  27         0.00000497
  28         0.00000000
Sym=    16a  
Ene=     1.2383
Spin= Alpha
Occup=    0.00000
   1         0.00000000
   2        -0.00000000
   3        -0.00000000
   4         0.06602523
   5        -0.00000000
   6        -0.00000000
   7        -0.52370012
   8         0.00000000
   9        -0.00000000
  10         0.00000000
  11        -0.10447438
  12         0.00000000
  13         0.00000000
  14        -0.00000000
  15        -0.00000000
  16        -0.00000000
  17         0.00000000
  18        -0.95468160
  19         0.00000000
  20        -0.00000000
  21         1.29438012
  22        -0.00000000
  23        -0.00000000
  24        -0.00000000
  25         0.03150451
  26        -0.00000000
  27        -0.00000000
  28        -0.00000000
Sym=    17a  
Ene=     1.2384
Spin= Alpha
Occup=    0.00000
   1        -0.00000000
   2        -0.00000000
   3        -0.00000000
   4         0.00000000
   5         0.06602336
   6        -0.00000000
   7        -0.00000000
   8        -0.52371739
   9        -0.00000000
  10        -0.00000000
  11        -0.00000000
  12        -0.10444863
  13         0.00000000
  14         0.00000000
  15        -0.00000000
  16        -0.00000000
  17         0.00000000
  18        -0.00000000
  19        -0.95468138
  20         0.00000000
  21         0.00000000
  22         1.29438094
  23        -0.00000000
  24        -0.00000000
  25         0.00000000
  26         0.03151290
  27         0.00000000
  28        -0.00000000
Sym=    18a  
Ene=     1.4985
Spin= Alpha
Occup=    0.00000
   1        -0.03017483
   2         0.87371231
   3         2.03981976
   4         0.00000000
   5         0.00000000
   6         0.31937635
   7        -0.00000000
   8        -0.00000000
   9         1.58631156
  10         0.25137948
  11        -0.00000000
  12        -0.00000000
  13         0.00001772
  14         0.00000000
  15         0.28800527
  16         1.96904184
  17        -4.59493202
  18        -0.00000000
  19        -0.00000000
  20        -0.06925515
  21         0.00000000
  22         0.00000000
  23         1.47246755
  24         0.04006560
  25         0.00000000
  26         0.00000000
  27         0.00003624
  28         0.00000000
Sym=    19a  
Ene=     1.8830
Spin= Alpha
Occup=    0.00000
   1         0.00000098
   2        -0.00002124
   3        -0.00005174
   4        -0.00000000
   5         0.00000000
   6        -0.00000761
   7         0.00000000
   8         0.00000000
   9        -0.00004112
  10        -0.00000410
  11         0.00000000
  12        -0.00000000
  13         0.96486625
  14        -0.00000000
  15        -0.00000798
  16        -0.00005498
  17         0.00012210
  18         0.00000000
  19         0.00000000
  20        -0.00000066
  21        -0.00000000
  22        -0.00000000
  23        -0.00003298
  24        -0.00000418
  25         0.00000000
  26         0.00000000
  27         0.18027410
  28         0.00000000
Sym=    20a  
Ene=     1.8830
Spin= Alpha
Occup=    0.00000
   1         0.00000000
   2        -0.00000000
   3        -0.00000000
   4         0.00000000
   5        -0.00000000
   6        -0.00000000
   7         0.00000000
   8         0.00000000
   9        -0.00000000
  10         0.00000000
  11         0.00000000
  12         0.00000000
  13         0.00000000
  14         0.96487127
  15        -0.00000000
  16        -0.00000000
  17         0.00000000
  18        -0.00000000
  19         0.00000000
  20        -0.00000000
  21        -0.00000000
  22        -0.00000000
  23        -0.00000000
  24        -0.00000000
  25        -0.00000000
  26         0.00000000
  27        -0.00000000
  28         0.18025656
Sym=    21a  
Ene=     1.9659
Spin= Alpha
Occup=    0.00000
   1         0.00000000
   2        -0.00000000
   3        -0.00000000
   4         0.11948109
   5         0.00000000
   6        -0.00000000
   7        -0.18521782
   8        -0.00000000
   9        -0.00000000
  10        -0.00000000
  11        -0.90473136
  12        -0.00000000
  13         0.00000000
  14         0.00000000
  15        -0.00000000
  16        -0.00000000
  17         0.00000000
  18         0.22905359
  19         0.00000000
  20         0.00000000
  21         0.18598819
  22         0.00000000
  23        -0.00000000
  24        -0.00000000
  25         0.27269109
  26         0.00000000
  27         0.00000000
  28         0.00000000
Sym=    22a  
Ene=     1.9659
Spin= Alpha
Occup=    0.00000
   1        -0.00000000
   2        -0.00000000
   3        -0.00000000
   4        -0.00000000
   5         0.11948544
   6        -0.00000000
   7         0.00000000
   8        -0.18523496
   9        -0.00000000
  10        -0.00000000
  11         0.00000000
  12        -0.90473015
  13        -0.00000000
  14         0.00000000
  15        -0.00000000
  16        -0.00000000
  17         0.00000000
  18        -0.00000000
  19         0.22903781
  20        -0.00000000
  21        -0.00000000
  22         0.18601306
  23        -0.00000000
  24        -0.00000000
  25        -0.00000000
  26         0.27269586
  27        -0.00000000
  28         0.00000000
Sym=    23a  
Ene=     2.7720
Spin= Alpha
Occup=    0.00000
   1        -0.07277392
   2         0.03315679
   3         0.09478011
   4         0.00000000
   5         0.00000000
   6         0.29241803
   7        -0.00000000
   8         0.00000000
   9         0.20557552
  10         1.14417739
  11        -0.00000000
  12        -0.00000000
  13         0.00001310
  14        -0.00000000
  15        -0.14352299
  16        -0.91542300
  17         0.22222494
  18         0.00000000
  19         0.00000000
  20         0.79030359
  21        -0.00000000
  22        -0.00000000
  23        -0.37993055
  24         0.12975896
  25         0.00000000
  26         0.00000000
  27        -0.00004603
  28         0.00000000
Sym=    24a  
Ene=     2.9625
Spin= Alpha
Occup=    0.00000
   1         0.00000000
   2        -0.00000000
   3         0.00000000
   4        -0.00000000
   5         0.00000000
   6        -0.00000000
   7        -0.00000000
   8        -0.00000000
   9        -0.00000000
  10         0.00000000
  11        -0.00000000
  12        -0.00000000
  13         0.00000000
  14        -0.28315295
  15         0.00000000
  16        -0.00000000
  17         0.00000000
  18        -0.00000000
  19        -0.00000000
  20        -0.00000000
  21         0.00000000
  22         0.00000000
  23        -0.00000000
  24        -0.00000000
  25        -0.00000000
  26        -0.00000000
  27        -0.00000000
  28         0.98927232
Sym=    25a  
Ene=     2.9625
Spin= Alpha
Occup=    0.00000
   1        -0.00000534
   2         0.00000767
   3        -0.00003146
   4         0.00000000
   5         0.00000000
   6         0.00002844
   7        -0.00000000
   8        -0.00000000
   9        -0.00001738
  10         0.00006322
  11        -0.00000000
  12         0.00000000
  13        -0.28317006
  14        -0.00000000
  15        -0.00001574
  16        -0.00010049
  17         0.00009546
  18        -0.00000000
  19         0.00000000
  20         0.00004735
  21         0.00000000
  22         0.00000000
  23        -0.00003130
  24        -0.00002884
  25        -0.00000000
  26         0.00000000
  27         0.98926913
  28         0.00000000
Sym=    26a  
Ene=     3.5563
Spin= Alpha
Occup=    0.00000
   1         0.00000000
   2         0.00000000
   3         0.00000000
   4         0.27349907
   5         0.00000000
   6         0.00000000
   7         0.16696116
   8         0.00000000
   9         0.00000000
  10         0.00000000
  11         0.72509729
  12         0.00000000
  13        -0.00000000
  14        -0.00000000
  15         0.00000000
  16         0.00000000
  17        -0.00000000
  18        -0.03566312
  19        -0.00000000
  20        -0.00000000
  21        -0.36287417
  22        -0.00000000
  23         0.00000000
  24        -0.00000000
  25         1.08400923
  26         0.00000000
  27         0.00000000
  28         0.00000000
Sym=    27a  
Ene=     3.5563
Spin= Alpha
Occup=    0.00000
   1         0.00000000
   2        -0.00000000
   3        -0.00000000
   4        -0.00000000
   5         0.27349751
   6        -0.00000000
   7        -0.00000000
   8         0.16697474
   9        -0.00000000
  10        -0.00000000
  11        -0.00000000
  12         0.72510208
  13        -0.00000000
  14        -0.00000000
  15         0.00000000
  16         0.00000000
  17         0.00000000
  18         0.00000000
  19        -0.03565393
  20        -0.00000000
  21         0.00000000
  22        -0.36289342
  23        -0.00000000
  24         0.00000000
  25        -0.00000000
  26         1.08400782
  27        -0.00000000
  28         0.00000000
Sym=    28a  
Ene=     4.0065
Spin= Alpha
Occup=    0.00000
   1         0.15541019
   2        -1.56395542
   3        -0.66580213
   4         0.00000000
   5        -0.00000000
   6        -1.15068320
   7         0.00000000
   8        -0.00000000
   9        -0.55393276
  10        -0.64430948
  11         0.00000000
  12        -0.00000000
  13        -0.00000522
  14        -0.00000000
  15         0.02988418
  16        -0.10197546
  17         2.09904007
  18         0.00000000
  19        -0.00000000
  20        -0.41164837
  21        -0.00000000
  22         0.00000000
  23        -1.21921894
  24         1.27917847
  25         0.00000000
  26        -0.00000000
  27         0.00002570
  28         0.00000000
