[Molden Format]
[N_Atoms]
                    2
[Atoms] (AU)
C1          1      6           0.00000000      0.00000000      0.00000000
O2          2      8           0.00000000      0.00000000      2.13217799
[5D]
[Charge] (Mulliken)
   4.3817206833048239E-002
  -4.3817206833141498E-002
[GTO] (AU)
   1
   s   5
  1.238401694E+03  5.517365048E-03
  1.862900499E+02  4.108882856E-02
  4.225117635E+01  1.822538213E-01
  1.167655793E+01  4.682845944E-01
  3.593050648E+00  4.457581734E-01
   s   1
  4.024514736E-01  1.000000000E+00
   s   1
  1.309018267E-01  1.000000000E+00
   p   3
  9.468097062E+00  5.688833201E-02
  2.010354514E+00  3.129405934E-01
  5.477100471E-01  7.606501651E-01
   p   1
  1.526861379E-01  1.000000000E+00
   d   1
  8.000000000E-01  1.000000000E+00
 
   2
   s   5
  2.266176779E+03 -5.389350392E-03
  3.408701019E+02 -4.023472139E-02
  7.736313517E+01 -1.800818421E-01
  2.147964494E+01 -4.682885766E-01
  6.658943312E+00 -4.469261716E-01
   s   1
  8.097597567E-01  1.000000000E+00
   s   1
  2.553077223E-01  1.000000000E+00
   p   3
  1.772150432E+01  6.263024876E-02
  3.863550544E+00  3.333113848E-01
  1.048092088E+00  7.414863831E-01
   p   1
  2.764154441E-01  1.000000000E+00
   d   1
  1.200000000E+00  1.000000000E+00
 
[MO]
Sym=     1a  
Ene=   -20.6690
Spin= Alpha
Occup=    2.00000
   1         0.00048553
   2        -0.00199895
   3        -0.00752194
   4        -0.00000000
   5        -0.00000000
   6         0.00029612
   7         0.00000000
   8         0.00000000
   9        -0.00524666
  10         0.00150681
  11         0.00000000
  12         0.00000000
  13         0.00000001
  14        -0.00000000
  15         0.98991780
  16        -0.03549661
  17         0.02041973
  18        -0.00000000
  19        -0.00000000
  20         0.00518032
  21        -0.00000000
  22        -0.00000000
  23        -0.00286677
  24        -0.00100704
  25         0.00000000
  26        -0.00000000
  27        -0.00000011
  28        -0.00000000
Sym=     2a  
Ene=   -11.3120
Spin= Alpha
Occup=    2.00000
   1         0.99859686
   2         0.01565177
   3        -0.02091936
   4        -0.00000000
   5        -0.00000000
   6         0.01500487
   7        -0.00000000
   8        -0.00000000
   9         0.00710801
  10         0.00288377
  11         0.00000000
  12         0.00000000
  13        -0.00000001
  14         0.00000000
  15         0.00310070
  16         0.00514855
  17        -0.00176149
  18         0.00000000
  19         0.00000000
  20         0.00014858
  21         0.00000000
  22         0.00000000
  23         0.00489717
  24         0.00035233
  25        -0.00000000
  26        -0.00000000
  27         0.00000001
  28         0.00000000
Sym=     3a  
Ene=    -1.1976
Spin= Alpha
Occup=    2.00000
   1        -0.05704038
   2         0.08637009
   3         0.08632040
   4         0.00000000
   5         0.00000000
   6        -0.03339278
   7         0.00000000
   8        -0.00000000
   9        -0.02147853
  10         0.00914370
  11         0.00000000
  12         0.00000000
  13        -0.00000032
  14        -0.00000000
  15         0.28367563
  16         0.57415048
  17         0.40638375
  18         0.00000000
  19         0.00000000
  20         0.23822808
  21         0.00000000
  22         0.00000000
  23         0.16331211
  24        -0.00129210
  25        -0.00000000
  26        -0.00000000
  27        -0.00000289
  28         0.00000000
Sym=     4a  
Ene=    -0.9638
Spin= Alpha
Occup=    1.98680
   1         0.24096984
   2        -0.55023685
   3        -0.23575064
   4        -0.00000000
   5         0.00000000
   6        -0.07480852
   7        -0.00000000
   8         0.00000000
   9         0.06819110
  10        -0.02039686
  11        -0.00000000
  12         0.00000000
  13        -0.00000035
  14         0.00000000
  15        -0.02321419
  16        -0.01899986
  17         0.14811443
  18         0.00000000
  19         0.00000000
  20         0.41903234
  21        -0.00000000
  22         0.00000000
  23         0.16370467
  24        -0.02556849
  25         0.00000000
  26        -0.00000000
  27        -0.00000019
  28         0.00000000
Sym=     5a  
Ene=    -0.0000
Spin= Alpha
Occup=    1.95373
   1        -0.00000000
   2         0.00000000
   3         0.00000000
   4         0.00000000
   5         0.30396878
   6        -0.00000000
   7         0.00000000
   8         0.12508644
   9        -0.00000000
  10         0.00000000
  11         0.00000000
  12         0.04885857
  13        -0.00000000
  14         0.00000000
  15         0.00000000
  16         0.00000000
  17        -0.00000000
  18        -0.00000000
  19         0.57000291
  20        -0.00000001
  21         0.00000000
  22         0.34447557
  23        -0.00000000
  24         0.00000000
  25        -0.00000000
  26        -0.02966480
  27         0.00000000
  28        -0.00000000
Sym=     6a  
Ene=    -0.6353
Spin= Alpha
Occup=    1.95372
   1         0.00000000
   2        -0.00000000
   3         0.00000000
   4         0.30397408
   5        -0.00000000
   6        -0.00000000
   7         0.12508116
   8        -0.00000000
   9        -0.00000000
  10        -0.00000000
  11         0.04885914
  12        -0.00000000
  13         0.00000000
  14         0.00000000
  15        -0.00000000
  16        -0.00000000
  17         0.00000000
  18         0.57000850
  19         0.00000000
  20         0.00000000
  21         0.34446994
  22         0.00000000
  23         0.00000000
  24        -0.00000000
  25        -0.02966503
  26         0.00000000
  27        -0.00000000
  28        -0.00000000
Sym=     7a  
Ene=    -0.0000
Spin= Alpha
Occup=    1.98478
   1        -0.06747202
   2         0.20757068
   3         0.43724089
   4        -0.00000000
   5         0.00000000
   6        -0.52223030
   7        -0.00000000
   8         0.00000000
   9        -0.14492880
  10        -0.04634852
  11        -0.00000000
  12         0.00000000
  13         0.00000000
  14        -0.00000000
  15        -0.10946538
  16        -0.21394998
  17        -0.06946693
  18        -0.00000000
  19         0.00000000
  20         0.32776775
  21        -0.00000000
  22         0.00000000
  23         0.14852976
  24        -0.01553899
  25         0.00000000
  26        -0.00000000
  27        -0.00000057
  28        -0.00000000
Sym=     8a  
Ene=     0.2687
Spin= Alpha
Occup=    0.05069
   1         0.00000000
   2        -0.00000000
   3         0.00000000
   4        -0.67035120
   5         0.00000000
   6        -0.00000000
   7        -0.25769167
   8         0.00000000
   9        -0.00000000
  10        -0.00000000
  11        -0.04875491
  12         0.00000000
  13         0.00000000
  14        -0.00000000
  15         0.00000000
  16         0.00000000
  17         0.00000000
  18         0.68677048
  19        -0.00000000
  20        -0.00000001
  21        -0.02514192
  22         0.00000000
  23        -0.00000000
  24         0.00000000
  25         0.01083156
  26        -0.00000000
  27        -0.00000000
  28        -0.00000000
Sym=     9a  
Ene=    -0.0000
Spin= Alpha
Occup=    0.05069
   1        -0.00000000
   2         0.00000001
   3        -0.00000000
   4        -0.00000000
   5        -0.67034579
   6         0.00000001
   7        -0.00000000
   8        -0.25768850
   9         0.00000000
  10         0.00000000
  11        -0.00000000
  12        -0.04875511
  13         0.00000000
  14         0.00000000
  15        -0.00000000
  16        -0.00000001
  17        -0.00000000
  18         0.00000000
  19         0.68677926
  20         0.00000001
  21        -0.00000000
  22        -0.02515366
  23        -0.00000000
  24        -0.00000000
  25         0.00000000
  26         0.01083265
  27         0.00000000
  28        -0.00000000
Sym=    10a  
Ene=    -0.0000
Spin= Alpha
Occup=    0.01960
   1         0.19256975
   2        -0.75172754
   3         0.08366411
   4         0.00000000
   5        -0.00000001
   6        -0.90766137
   7         0.00000000
   8        -0.00000000
   9        -0.10292002
  10        -0.07851488
  11         0.00000000
  12        -0.00000000
  13        -0.00000137
  14        -0.00000000
  15         0.16978600
  16         0.68858005
  17         0.11984790
  18        -0.00000000
  19         0.00000000
  20        -0.89950139
  21         0.00000000
  22        -0.00000000
  23         0.03791084
  24         0.01084518
  25        -0.00000000
  26         0.00000000
  27         0.00000058
  28         0.00000000
Sym=    11a  
Ene=     0.4118
Spin= Alpha
Occup=    0.00000
   1         0.13580997
   2        -0.71957691
   3         2.24307909
   4        -0.00000000
   5         0.00000000
   6        -0.02498912
   7         0.00000000
   8         0.00000000
   9         1.61584678
  10         0.05852708
  11        -0.00000000
  12        -0.00000000
  13         0.00000047
  14        -0.00000000
  15        -0.05837613
  16         0.01596935
  17        -1.93298096
  18        -0.00000000
  19         0.00000000
  20        -0.16268534
  21        -0.00000000
  22        -0.00000000
  23         0.51086276
  24        -0.05752463
  25         0.00000000
  26         0.00000000
  27        -0.00000470
  28         0.00000000
Sym=    12a  
Ene=     0.6066
Spin= Alpha
Occup=    0.00000
   1        -0.21752333
   2         1.24801594
   3        -0.67625893
   4        -0.00000000
   5        -0.00000000
   6        -0.57710425
   7         0.00000000
   8         0.00000000
   9         1.15672144
  10         0.02532406
  11        -0.00000000
  12        -0.00000000
  13         0.00000037
  14        -0.00000000
  15        -0.01363234
  16         0.02547976
  17        -0.66485730
  18        -0.00000000
  19         0.00000000
  20        -0.05781494
  21        -0.00000000
  22        -0.00000000
  23         0.24486539
  24        -0.02732405
  25         0.00000000
  26         0.00000000
  27        -0.00000007
  28         0.00000000
Sym=    13a  
Ene=     0.6403
Spin= Alpha
Occup=    0.00000
   1         0.00000000
   2        -0.00000000
   3        -0.00000000
   4        -0.85166516
   5        -0.00000000
   6         0.00000000
   7         1.25288572
   8         0.00000000
   9        -0.00000000
  10        -0.00000000
  11        -0.03441998
  12        -0.00000000
  13        -0.00000000
  14        -0.00000000
  15        -0.00000000
  16        -0.00000000
  17         0.00000000
  18        -0.00168640
  19         0.00000000
  20         0.00000000
  21        -0.29308790
  22        -0.00000000
  23        -0.00000000
  24         0.00000000
  25         0.04367533
  26         0.00000000
  27        -0.00000000
  28        -0.00000000
Sym=    14a  
Ene=     0.6403
Spin= Alpha
Occup=    0.00000
   1         0.00000000
   2        -0.00000000
   3         0.00000000
   4         0.00000000
   5        -0.85168042
   6         0.00000000
   7        -0.00000000
   8         1.25286050
   9        -0.00000000
  10        -0.00000000
  11         0.00000000
  12        -0.03443284
  13         0.00000000
  14        -0.00000000
  15        -0.00000000
  16        -0.00000000
  17         0.00000000
  18         0.00000000
  19        -0.00171945
  20         0.00000000
  21         0.00000000
  22        -0.29302982
  23        -0.00000000
  24         0.00000000
  25        -0.00000000
  26         0.04367396
  27         0.00000000
  28        -0.00000000
Sym=    15a  
Ene=     1.0129
Spin= Alpha
Occup=    0.00000
   1        -0.09312375
   2         1.08755564
   3         0.26158612
   4         0.00000000
   5         0.00000000
   6         0.59098353
   7         0.00000000
   8         0.00000000
   9         0.07353192
  10         0.10820832
  11         0.00000000
  12         0.00000000
  13        -0.00000271
  14        -0.00000000
  15        -0.13366307
  16        -0.44969586
  17        -0.50500107
  18         0.00000000
  19         0.00000000
  20        -0.50625870
  21        -0.00000000
  22        -0.00000000
  23         1.64926226
  24         0.03838975
  25        -0.00000000
  26        -0.00000000
  27         0.00000065
  28        -0.00000000
Sym=    16a  
Ene=     1.0832
Spin= Alpha
Occup=    0.00000
   1        -0.00000000
   2         0.00000000
   3         0.00000000
   4        -0.29556232
   5        -0.00000000
   6         0.00000000
   7        -0.52255956
   8        -0.00000000
   9         0.00000000
  10         0.00000000
  11        -0.06788053
  12        -0.00000000
  13         0.00000000
  14         0.00000000
  15        -0.00000000
  16        -0.00000000
  17        -0.00000000
  18        -0.75596335
  19        -0.00000000
  20        -0.00000000
  21         1.35408776
  22         0.00000000
  23         0.00000000
  24         0.00000000
  25         0.03633870
  26         0.00000000
  27         0.00000000
  28         0.00000000
Sym=    17a  
Ene=     1.0832
Spin= Alpha
Occup=    0.00000
   1        -0.00000000
   2         0.00000000
   3         0.00000000
   4         0.00000000
   5        -0.29553514
   6         0.00000000
   7         0.00000000
   8        -0.52260938
   9         0.00000000
  10         0.00000000
  11         0.00000000
  12        -0.06785247
  13        -0.00000000
  14         0.00000000
  15        -0.00000000
  16        -0.00000000
  17        -0.00000000
  18         0.00000000
  19        -0.75596296
  20        -0.00000000
  21        -0.00000000
  22         1.35408883
  23         0.00000000
  24        -0.00000000
  25        -0.00000000
  26         0.03634439
  27        -0.00000000
  28         0.00000000
Sym=    18a  
Ene=     1.4748
Spin= Alpha
Occup=    0.00000
   1        -0.05877717
   2         0.97372506
   3         1.97780747
   4        -0.00000000
   5        -0.00000000
   6         0.47581822
   7         0.00000000
   8        -0.00000000
   9         1.52084044
  10         0.15607992
  11         0.00000000
  12        -0.00000000
  13         0.00001492
  14        -0.00000000
  15         0.27392056
  16         1.93750240
  17        -4.58217409
  18         0.00000000
  19         0.00000000
  20         0.06857131
  21        -0.00000000
  22         0.00000000
  23         1.43380928
  24         0.06933478
  25         0.00000000
  26         0.00000000
  27         0.00003410
  28        -0.00000000
Sym=    19a  
Ene=     1.9031
Spin= Alpha
Occup=    0.00000
   1         0.00000130
   2        -0.00001974
   3        -0.00004352
   4        -0.00000000
   5         0.00000000
   6        -0.00000864
   7         0.00000000
   8        -0.00000000
   9        -0.00003454
  10        -0.00000084
  11         0.00000000
  12        -0.00000000
  13         0.96256185
  14         0.00000000
  15        -0.00000671
  16        -0.00004748
  17         0.00010520
  18         0.00000000
  19        -0.00000000
  20        -0.00000229
  21        -0.00000000
  22         0.00000000
  23        -0.00002769
  24        -0.00000461
  25        -0.00000000
  26         0.00000000
  27         0.18821019
  28         0.00000000
Sym=    20a  
Ene=     1.9031
Spin= Alpha
Occup=    0.00000
   1        -0.00000000
   2         0.00000000
   3         0.00000000
   4        -0.00000000
   5        -0.00000000
   6        -0.00000000
   7         0.00000000
   8         0.00000000
   9         0.00000000
  10         0.00000000
  11         0.00000000
  12         0.00000000
  13        -0.00000000
  14         0.96256673
  15         0.00000000
  16         0.00000000
  17        -0.00000000
  18         0.00000000
  19         0.00000000
  20        -0.00000000
  21        -0.00000000
  22        -0.00000000
  23         0.00000000
  24        -0.00000000
  25        -0.00000000
  26        -0.00000000
  27        -0.00000000
  28         0.18819364
Sym=    21a  
Ene=     1.9700
Spin= Alpha
Occup=    0.00000
   1         0.00000000
   2         0.00000000
   3         0.00000000
   4         0.17676546
   5         0.00000000
   6        -0.00000000
   7        -0.19445562
   8        -0.00000000
   9         0.00000000
  10         0.00000000
  11        -0.90279546
  12        -0.00000000
  13         0.00000000
  14         0.00000000
  15         0.00000000
  16         0.00000000
  17        -0.00000000
  18         0.14385819
  19         0.00000000
  20        -0.00000000
  21         0.22890292
  22         0.00000000
  23         0.00000000
  24        -0.00000000
  25         0.27914102
  26         0.00000000
  27         0.00000000
  28         0.00000000
Sym=    22a  
Ene=     1.9700
Spin= Alpha
Occup=    0.00000
   1        -0.00000000
   2         0.00000000
   3        -0.00000000
   4        -0.00000000
   5         0.17676765
   6         0.00000000
   7         0.00000000
   8        -0.19447385
   9        -0.00000000
  10        -0.00000000
  11         0.00000000
  12        -0.90279344
  13        -0.00000000
  14         0.00000000
  15        -0.00000000
  16        -0.00000000
  17         0.00000000
  18        -0.00000000
  19         0.14384127
  20         0.00000000
  21        -0.00000000
  22         0.22893131
  23        -0.00000000
  24         0.00000000
  25        -0.00000000
  26         0.27914601
  27        -0.00000000
  28         0.00000000
Sym=    23a  
Ene=     2.6622
Spin= Alpha
Occup=    0.00000
   1        -0.03498011
   2        -0.03630775
   3         0.25097966
   4        -0.00000000
   5         0.00000000
   6         0.12329770
   7         0.00000000
   8        -0.00000000
   9         0.30895886
  10         1.21537378
  11        -0.00000000
  12        -0.00000000
  13         0.00000492
  14        -0.00000000
  15        -0.09937798
  16        -0.70937415
  17        -0.03077955
  18        -0.00000000
  19         0.00000000
  20         0.57736424
  21         0.00000000
  22        -0.00000000
  23        -0.23834312
  24         0.05460251
  25        -0.00000000
  26         0.00000000
  27        -0.00002058
  28        -0.00000000
Sym=    24a  
Ene=     2.9493
Spin= Alpha
Occup=    0.00000
   1        -0.00000000
   2         0.00000000
   3         0.00000000
   4        -0.00000000
   5        -0.00000000
   6         0.00000000
   7        -0.00000000
   8        -0.00000000
   9        -0.00000000
  10         0.00000000
  11        -0.00000000
  12        -0.00000000
  13        -0.00000000
  14        -0.29089080
  15         0.00000000
  16        -0.00000000
  17         0.00000000
  18         0.00000000
  19         0.00000000
  20         0.00000000
  21        -0.00000000
  22        -0.00000000
  23        -0.00000000
  24         0.00000000
  25         0.00000000
  26         0.00000000
  27         0.00000000
  28         0.98779315
Sym=    25a  
Ene=     2.9493
Spin= Alpha
Occup=    0.00000
   1        -0.00000204
   2         0.00000506
   3        -0.00002587
   4        -0.00000000
   5         0.00000000
   6         0.00001470
   7        -0.00000000
   8         0.00000000
   9        -0.00001735
  10         0.00003596
  11        -0.00000000
  12        -0.00000000
  13        -0.29090692
  14         0.00000000
  15        -0.00000986
  16        -0.00006558
  17         0.00007414
  18         0.00000000
  19        -0.00000000
  20         0.00001872
  21        -0.00000000
  22         0.00000000
  23        -0.00001457
  24        -0.00003416
  25         0.00000000
  26        -0.00000000
  27         0.98779000
  28        -0.00000000
Sym=    26a  
Ene=     3.5491
Spin= Alpha
Occup=    0.00000
   1         0.00000000
   2        -0.00000000
   3        -0.00000000
   4         0.25898066
   5         0.00000000
   6         0.00000000
   7         0.16515592
   8         0.00000000
   9        -0.00000000
  10         0.00000000
  11         0.73047803
  12         0.00000000
  13         0.00000000
  14         0.00000000
  15        -0.00000000
  16        -0.00000000
  17         0.00000000
  18        -0.02177454
  19        -0.00000000
  20         0.00000000
  21        -0.36925407
  22        -0.00000000
  23        -0.00000000
  24         0.00000000
  25         1.08255143
  26         0.00000000
  27        -0.00000000
  28        -0.00000000
Sym=    27a  
Ene=     3.5491
Spin= Alpha
Occup=    0.00000
   1        -0.00000000
   2        -0.00000000
   3        -0.00000000
   4        -0.00000000
   5         0.25898021
   6         0.00000000
   7        -0.00000000
   8         0.16516910
   9        -0.00000000
  10         0.00000000
  11        -0.00000000
  12         0.73048255
  13        -0.00000000
  14         0.00000000
  15        -0.00000000
  16        -0.00000000
  17         0.00000000
  18         0.00000000
  19        -0.02176664
  20         0.00000000
  21         0.00000000
  22        -0.36927257
  23        -0.00000000
  24         0.00000000
  25        -0.00000000
  26         1.08255000
  27         0.00000000
  28        -0.00000000
Sym=    28a  
Ene=     3.9641
Spin= Alpha
Occup=    0.00000
   1         0.13472235
   2        -1.50253506
   3        -0.69465309
   4         0.00000000
   5         0.00000000
   6        -1.05332063
   7        -0.00000000
   8        -0.00000000
   9        -0.55776308
  10        -0.60162498
  11        -0.00000000
  12         0.00000000
  13        -0.00000516
  14         0.00000000
  15         0.00720312
  16        -0.21260089
  17         2.13989475
  18        -0.00000000
  19        -0.00000000
  20        -0.29150053
  21         0.00000000
  22         0.00000000
  23        -1.25862925
  24         1.28857333
  25        -0.00000000
  26        -0.00000000
  27         0.00002565
  28        -0.00000000
