15

C     -4.1622988362   -0.1749262260   -0.1460209803
C     -3.0656682901    0.8141655383   -0.3222695165
H     -4.0431367235   -1.0744704805   -0.7863817438
H     -5.1649021249    0.2739298948   -0.4535818729
H     -4.3044748657   -0.4841215937    0.9119558297
H     -3.0438753256    1.6629212235    0.3797954320
H     -2.7751861564    1.0591642879   -1.3540515012
C      0.3185397943   -0.5734174059    0.6412883965
C      1.3791688856    0.3665465887    0.5295113568
C      2.4492273971    0.2220748088   -0.3213624851
H      0.4004005039   -1.4731255774    0.0041210042
H     -0.1857267744   -0.7127993154    1.6028638235
H      1.3752170254    1.2543347038    1.1946581418
H      2.5344733245   -0.6623322917   -0.9848155281
H      3.2571919344    0.9733760052   -0.3549006214
