15

C     -4.6407872849   -0.1124746067   -0.2066461635
C     -3.6609329319    0.9604147363   -0.4416715717
H     -4.4689472714   -1.0125663572   -0.8382399404
H     -5.6914281345    0.2375534315   -0.4781546326
H     -4.7134885064   -0.4167968520    0.8621590686
H     -3.5686279500    1.7804771738    0.2866713071
H     -3.3141913369    1.1640533371   -1.4661025766
C      0.8657864406   -0.7340863317    0.7815051662
C      1.8165126777    0.2755627202    0.6107292765
C      2.8548099050    0.2150888344   -0.3072425023
H      0.9196992212   -1.6291415535    0.1406607361
H      0.2305337417   -0.7852260283    1.6793101940
H      1.7774378886    1.1635606583    1.2737882104
H      2.9659673766   -0.6607786118   -0.9755975090
H      3.5965986490    1.0256739271   -0.3803566981
