15

C     -5.3243809352   -0.0261158877   -0.2927561785
C     -4.4573038522    1.1429092811   -0.5960160919
H     -5.0604356709   -0.9147017583   -0.9040089698
H     -6.4037700705    0.1825202038   -0.5072269717
H     -5.2791788673   -0.3162789355    0.7780925839
H     -4.3079707105    1.9426460992    0.1447455463
H     -4.0775312272    1.3154168370   -1.6141534217
C      1.5901903748   -0.9284765273    0.9623387057
C      2.4396353688    0.1490959369    0.7226982975
C      3.4107861381    0.1987495710   -0.2745680235
H      1.6460304912   -1.8387432720    0.3449630867
H      0.8443115061   -0.9018642886    1.7684766243
H      2.3358422903    1.0348310275    1.3743205946
H      3.5643813631   -0.6518990822   -0.9568121594
H      4.0483692413    1.0832326852   -0.4093055124
