15

C     -4.2721198629   -0.1606476124   -0.1599093625
C     -3.2040411938    0.8485586283   -0.3501688146
H     -4.1412846261   -1.0604935092   -0.7984711099
H     -5.2867638879    0.2657304396   -0.4594039419
H     -4.3988124043   -0.4687900817    0.9008365994
H     -3.1645080992    1.6900401602    0.3586990491
H     -2.8989722877    1.0831579251   -1.3800815710
C      0.4463017514   -0.6112130742    0.6738402819
C      1.4792574232    0.3455246190    0.5483818397
C      2.5429801183    0.2205607991   -0.3185444775
H      0.5199121480   -1.5092140530    0.0352026385
H     -0.0908443959   -0.7290331122    1.6210408522
H      1.4679486483    1.2334653400    1.2131358967
H      2.6339432343   -0.6621338930   -0.9828389645
H      3.3359506038    0.9858060561   -0.3609078772
