[Molden Format]
[N_Atoms]
                    6
[Atoms] (AU)
C1          1      6           0.00000000      0.00000000      1.26517164
C2          2      6           0.00000000      0.00000000     -1.26517164
H3          3      1           0.00000000      1.74535105      2.32833156
H4          4      1           0.00000000     -1.74535105      2.32833156
H5          5      1           0.00000000      1.74535105     -2.32833156
H6          6      1           0.00000000     -1.74535105     -2.32833156
[5D]
[Charge] (Mulliken)
  -6.4773905273951549E-002
  -6.4793131178556784E-002
   3.2391827580538157E-002
   3.2396410100759665E-002
   3.2390738985121126E-002
   3.2388059785924961E-002
[GTO] (AU)
   1
   s   5
  1.238401694E+03  5.517365048E-03
  1.862900499E+02  4.108882856E-02
  4.225117635E+01  1.822538213E-01
  1.167655793E+01  4.682845944E-01
  3.593050648E+00  4.457581734E-01
   s   1
  4.024514736E-01  1.000000000E+00
   s   1
  1.309018267E-01  1.000000000E+00
   p   3
  9.468097062E+00  5.688833201E-02
  2.010354514E+00  3.129405934E-01
  5.477100471E-01  7.606501651E-01
   p   1
  1.526861379E-01  1.000000000E+00
   d   1
  8.000000000E-01  1.000000000E+00
 
   2
   s   5
  1.238401694E+03  5.517365048E-03
  1.862900499E+02  4.108882856E-02
  4.225117635E+01  1.822538213E-01
  1.167655793E+01  4.682845944E-01
  3.593050648E+00  4.457581734E-01
   s   1
  4.024514736E-01  1.000000000E+00
   s   1
  1.309018267E-01  1.000000000E+00
   p   3
  9.468097062E+00  5.688833201E-02
  2.010354514E+00  3.129405934E-01
  5.477100471E-01  7.606501651E-01
   p   1
  1.526861379E-01  1.000000000E+00
   d   1
  8.000000000E-01  1.000000000E+00
 
   3
   s   3
  1.301070100E+01  3.348548481E-02
  1.962257200E+00  2.347218709E-01
  4.445379600E-01  8.137702853E-01
   s   1
  1.219496200E-01  1.000000000E+00
   p   1
  8.000000000E-01  1.000000000E+00
 
   4
   s   3
  1.301070100E+01  3.348548481E-02
  1.962257200E+00  2.347218709E-01
  4.445379600E-01  8.137702853E-01
   s   1
  1.219496200E-01  1.000000000E+00
   p   1
  8.000000000E-01  1.000000000E+00
 
   5
   s   3
  1.301070100E+01  3.348548481E-02
  1.962257200E+00  2.347218709E-01
  4.445379600E-01  8.137702853E-01
   s   1
  1.219496200E-01  1.000000000E+00
   p   1
  8.000000000E-01  1.000000000E+00
 
   6
   s   3
  1.301070100E+01  3.348548481E-02
  1.962257200E+00  2.347218709E-01
  4.445379600E-01  8.137702853E-01
   s   1
  1.219496200E-01  1.000000000E+00
   p   1
  8.000000000E-01  1.000000000E+00
 
[MO]
Sym=     1a  
Ene=   -11.2040
Spin= Alpha
Occup=    2.00000
   1         0.69979767
   2         0.02189288
   3        -0.01223005
   4        -0.00000000
   5         0.00000004
   6        -0.00096936
   7         0.00000000
   8        -0.00000010
   9        -0.00143098
  10         0.00043326
  11         0.00000000
  12        -0.00000000
  13        -0.00057419
  14        -0.00000000
  15         0.70305370
  16         0.02202555
  17        -0.01234516
  18        -0.00000000
  19        -0.00000003
  20         0.00097651
  21         0.00000000
  22        -0.00000001
  23         0.00142433
  24         0.00043989
  25         0.00000000
  26         0.00000000
  27        -0.00058172
  28         0.00000000
  29        -0.00320785
  30         0.00293710
  31         0.00000000
  32         0.00089195
  33         0.00012398
  34        -0.00320793
  35         0.00293691
  36         0.00000000
  37        -0.00089196
  38         0.00012399
  39        -0.00322199
  40         0.00295737
  41        -0.00000000
  42         0.00089855
  43        -0.00012869
  44        -0.00322193
  45         0.00295734
  46        -0.00000000
  47        -0.00089855
  48        -0.00012869
Sym=     2a  
Ene=   -11.2030
Spin= Alpha
Occup=    2.00000
   1        -0.70304426
   2        -0.02596281
   3         0.02449660
   4        -0.00000000
   5        -0.00000003
   6         0.00176806
   7        -0.00000000
   8         0.00000009
   9        -0.00155902
  10        -0.00098564
  11         0.00000000
  12         0.00000001
  13         0.00139226
  14         0.00000000
  15         0.69977996
  16         0.02587285
  17        -0.02443954
  18        -0.00000000
  19        -0.00000001
  20         0.00176358
  21         0.00000000
  22         0.00000010
  23        -0.00156588
  24         0.00098396
  25        -0.00000000
  26        -0.00000002
  27        -0.00139029
  28         0.00000000
  29         0.00325958
  30        -0.00404048
  31        -0.00000000
  32        -0.00118981
  33        -0.00088599
  34         0.00325964
  35        -0.00404027
  36        -0.00000000
  37         0.00118982
  38        -0.00088601
  39        -0.00324358
  40         0.00402736
  41         0.00000000
  42         0.00118652
  43        -0.00088573
  44        -0.00324354
  45         0.00402754
  46         0.00000000
  47        -0.00118650
  48        -0.00088571
Sym=     3a  
Ene=    -1.0059
Spin= Alpha
Occup=    1.98530
   1        -0.19772827
   2         0.38710372
   3         0.10900720
   4         0.00000000
   5         0.00000010
   6        -0.11574144
   7         0.00000000
   8        -0.00000296
   9        -0.02256541
  10         0.01518232
  11        -0.00000000
  12        -0.00000030
  13        -0.00126512
  14        -0.00000000
  15        -0.19776542
  16         0.38719498
  17         0.10889335
  18        -0.00000000
  19         0.00000024
  20         0.11573437
  21        -0.00000000
  22        -0.00000353
  23         0.02254768
  24         0.01518157
  25         0.00000000
  26         0.00000025
  27        -0.00126677
  28         0.00000000
  29         0.10796583
  30         0.01324916
  31         0.00000000
  32        -0.01245301
  33        -0.00896474
  34         0.10796479
  35         0.01324317
  36         0.00000000
  37         0.01245269
  38        -0.00896426
  39         0.10796930
  40         0.01327153
  41        -0.00000000
  42        -0.01244872
  43         0.00896143
  44         0.10796856
  45         0.01326471
  46        -0.00000000
  47         0.01244840
  48         0.00896096
Sym=     4a  
Ene=    -0.0682
Spin= Alpha
Occup=    1.98022
   1         0.14956071
   2        -0.31269036
   3        -0.09820962
   4        -0.00000000
   5         0.00000030
   6        -0.16482067
   7         0.00000000
   8        -0.00000407
   9        -0.05751083
  10         0.00759786
  11         0.00000000
  12        -0.00000021
  13         0.00963743
  14        -0.00000000
  15        -0.14956454
  16         0.31270910
  17         0.09816317
  18         0.00000000
  19         0.00000034
  20        -0.16480578
  21         0.00000000
  22        -0.00000159
  23        -0.05751191
  24        -0.00760235
  25         0.00000000
  26         0.00000020
  27        -0.00963881
  28         0.00000000
  29        -0.19352436
  30        -0.04530667
  31        -0.00000000
  32         0.01554011
  33         0.00601436
  34        -0.19352427
  35        -0.04531375
  36        -0.00000000
  37        -0.01554048
  38         0.00601474
  39         0.19350007
  40         0.04531542
  41         0.00000000
  42        -0.01553443
  43         0.00601240
  44         0.19349977
  45         0.04531212
  46         0.00000000
  47         0.01553419
  48         0.00601204
Sym=     5a  
Ene=    -0.0000
Spin= Alpha
Occup=    1.97895
   1         0.00000012
   2        -0.00000019
   3        -0.00000094
   4        -0.00000000
   5         0.32129630
   6         0.00000295
   7        -0.00000000
   8         0.11112527
   9         0.00000135
  10        -0.00000019
  11        -0.00000000
  12         0.00452389
  13        -0.00000021
  14         0.00000000
  15         0.00000029
  16         0.00000067
  17        -0.00001104
  18        -0.00000000
  19         0.32124706
  20        -0.00000351
  21         0.00000000
  22         0.11109488
  23         0.00000352
  24        -0.00000013
  25        -0.00000000
  26        -0.00451988
  27         0.00000013
  28        -0.00000000
  29         0.20810429
  30         0.06244862
  31        -0.00000000
  32        -0.00717272
  33        -0.00816431
  34        -0.20810187
  35        -0.06244766
  36        -0.00000000
  37        -0.00717269
  38         0.00816431
  39         0.20807134
  40         0.06245496
  41         0.00000000
  42        -0.00717204
  43         0.00816312
  44        -0.20806709
  45        -0.06244004
  46         0.00000000
  47        -0.00717100
  48        -0.00816307
Sym=     6a  
Ene=    -0.6307
Spin= Alpha
Occup=    1.97593
   1         0.01710357
   2        -0.02932931
   3         0.00851885
   4         0.00000000
   5        -0.00000339
   6         0.41360218
   7         0.00000000
   8        -0.00000060
   9         0.13557421
  10        -0.01468324
  11         0.00000000
  12         0.00000046
  13        -0.01221605
  14        -0.00000000
  15         0.01709547
  16        -0.02933321
  17         0.00863228
  18        -0.00000000
  19        -0.00000254
  20        -0.41360775
  21        -0.00000000
  22         0.00001784
  23        -0.13556975
  24        -0.01468437
  25         0.00000000
  26        -0.00000076
  27        -0.01221970
  28        -0.00000000
  29         0.16740549
  30         0.06403304
  31         0.00000000
  32        -0.00959773
  33         0.00246703
  34         0.16741149
  35         0.06404199
  36         0.00000000
  37         0.00959845
  38         0.00246622
  39         0.16741930
  40         0.06399686
  41        -0.00000000
  42        -0.00959749
  43        -0.00246662
  44         0.16742482
  45         0.06402962
  46        -0.00000000
  47         0.00959871
  48        -0.00246503
Sym=     7a  
Ene=     0.0000
Spin= Alpha
Occup=    1.97689
   1         0.00000027
   2        -0.00000274
   3         0.00001279
   4        -0.00000000
   5        -0.30880496
   6        -0.00000141
   7        -0.00000000
   8        -0.11377111
   9         0.00000530
  10         0.00000013
  11         0.00000000
  12        -0.02951059
  13        -0.00000012
  14         0.00000000
  15         0.00000023
  16        -0.00000127
  17         0.00000581
  18        -0.00000000
  19         0.30884449
  20         0.00000209
  21         0.00000000
  22         0.11378648
  23        -0.00000092
  24         0.00000003
  25         0.00000000
  26        -0.02951255
  27        -0.00000004
  28        -0.00000000
  29        -0.25752228
  30        -0.12796798
  31        -0.00000000
  32         0.00617614
  33         0.00764596
  34         0.25752234
  35         0.12795225
  36        -0.00000000
  37         0.00617526
  38        -0.00764593
  39         0.25755120
  40         0.12797136
  41         0.00000000
  42        -0.00617564
  43         0.00764690
  44        -0.25755052
  45        -0.12797697
  46         0.00000000
  47        -0.00617606
  48        -0.00764686
Sym=     8a  
Ene=    -0.0000
Spin= Alpha
Occup=    1.92608
   1         0.00000000
   2        -0.00000000
   3         0.00000000
   4         0.40511396
   5         0.00000000
   6        -0.00000000
   7         0.27995250
   8         0.00000000
   9         0.00000000
  10         0.00000000
  11        -0.02404962
  12        -0.00000000
  13         0.00000000
  14         0.00000004
  15        -0.00000000
  16         0.00000000
  17        -0.00000000
  18         0.40512482
  19        -0.00000000
  20        -0.00000000
  21         0.28000659
  22        -0.00000000
  23         0.00000000
  24        -0.00000000
  25         0.02405439
  26        -0.00000000
  27        -0.00000000
  28         0.00000009
  29         0.00000000
  30         0.00000000
  31         0.01037624
  32         0.00000000
  33         0.00000000
  34         0.00000000
  35         0.00000000
  36         0.01037622
  37        -0.00000000
  38         0.00000000
  39        -0.00000000
  40        -0.00000000
  41         0.01037217
  42        -0.00000000
  43        -0.00000000
  44        -0.00000000
  45        -0.00000000
  46         0.01037236
  47         0.00000000
  48         0.00000000
Sym=     9a  
Ene=    -0.0000
Spin= Alpha
Occup=    0.07488
   1        -0.00000000
   2         0.00000000
   3         0.00000000
   4        -0.65054785
   5         0.00000000
   6         0.00000000
   7        -0.25729979
   8         0.00000000
   9        -0.00000000
  10        -0.00000000
  11        -0.00069733
  12        -0.00000000
  13        -0.00000000
  14         0.00000055
  15        -0.00000000
  16         0.00000000
  17        -0.00000000
  18         0.65049508
  19        -0.00000000
  20        -0.00000000
  21         0.25732518
  22         0.00000000
  23        -0.00000000
  24        -0.00000000
  25        -0.00070834
  26         0.00000000
  27        -0.00000000
  28         0.00000018
  29        -0.00000000
  30        -0.00000000
  31        -0.00655607
  32        -0.00000000
  33        -0.00000000
  34        -0.00000000
  35        -0.00000000
  36        -0.00655622
  37         0.00000000
  38        -0.00000000
  39        -0.00000000
  40        -0.00000000
  41         0.00654889
  42        -0.00000000
  43         0.00000000
  44        -0.00000000
  45        -0.00000000
  46         0.00654902
  47         0.00000000
  48         0.00000000
Sym=    10a  
Ene=     0.0000
Spin= Alpha
Occup=    0.02171
   1         0.17050302
   2        -0.72937589
   3         0.05466177
   4        -0.00000000
   5        -0.00021243
   6        -0.46887053
   7        -0.00000000
   8        -0.00004706
   9         0.02238563
  10         0.02116921
  11         0.00000000
  12        -0.00002208
  13         0.02570343
  14        -0.00000000
  15         0.17050046
  16        -0.72938351
  17         0.05479375
  18         0.00000000
  19         0.00039841
  20         0.46882140
  21         0.00000000
  22         0.00005284
  23        -0.02234632
  24         0.02116200
  25        -0.00000000
  26        -0.00003418
  27         0.02570544
  28         0.00000000
  29         0.43298117
  30         0.09820346
  31        -0.00000000
  32         0.00727798
  33         0.01084974
  34         0.43278581
  35         0.09804762
  36        -0.00000000
  37        -0.00726677
  38         0.01084739
  39         0.43264157
  40         0.09798899
  41         0.00000000
  42         0.00725125
  43        -0.01083924
  44         0.43307958
  45         0.09822495
  46         0.00000000
  47        -0.00727434
  48        -0.01084751
Sym=    11a  
Ene=     0.0000
Spin= Alpha
Occup=    0.02048
   1        -0.00106314
   2         0.00446612
   3        -0.00075339
   4         0.00000000
   5         0.66109237
   6         0.00142744
   7         0.00000000
   8         0.02165402
   9        -0.00010168
  10        -0.00002248
  11         0.00000000
  12         0.04359232
  13        -0.00014458
  14        -0.00000000
  15         0.00101426
  16        -0.00425681
  17         0.00073339
  18        -0.00000000
  19         0.66089061
  20         0.00129821
  21        -0.00000000
  22         0.02167904
  23        -0.00009502
  24         0.00001585
  25        -0.00000000
  26        -0.04357504
  27         0.00013771
  28        -0.00000000
  29        -0.43166333
  30        -0.13853052
  31        -0.00000000
  32        -0.02046563
  33        -0.00887170
  34         0.42709812
  35         0.13776513
  36         0.00000000
  37        -0.02041749
  38         0.00884887
  39        -0.42711960
  40        -0.13776506
  41        -0.00000000
  42        -0.02041681
  43         0.00885366
  44         0.43143648
  45         0.13847987
  46         0.00000000
  47        -0.02045990
  48        -0.00887120
Sym=    12a  
Ene=     0.0100
Spin= Alpha
Occup=    0.02160
   1        -0.21806919
   2         0.91527642
   3        -0.15002818
   4         0.00000000
   5        -0.00320571
   6         0.27031870
   7         0.00000000
   8        -0.00009693
   9        -0.02205931
  10        -0.00383712
  11        -0.00000000
  12        -0.00021056
  13        -0.02896409
  14         0.00000000
  15         0.21808295
  16        -0.91537236
  17         0.15012739
  18         0.00000000
  19        -0.00316029
  20         0.27035218
  21         0.00000000
  22        -0.00008943
  23        -0.02206230
  24         0.00384825
  25         0.00000000
  26         0.00020598
  27         0.02897030
  28         0.00000000
  29        -0.45882996
  30        -0.07698640
  31         0.00000000
  32        -0.00431622
  33        -0.00190569
  34        -0.46298504
  35        -0.07830802
  36         0.00000000
  37         0.00451535
  38        -0.00199341
  39         0.46299153
  40         0.07826417
  41         0.00000000
  42         0.00450507
  43        -0.00198638
  44         0.45888440
  45         0.07697330
  46         0.00000000
  47        -0.00430825
  48        -0.00189962
Sym=    13a  
Ene=    -0.0000
Spin= Alpha
Occup=    0.01903
   1        -0.00006349
   2         0.00027460
   3        -0.00003266
   4        -0.00000000
   5        -0.76136336
   6         0.00018072
   7         0.00000000
   8        -0.03954679
   9        -0.00001726
  10        -0.00000794
  11        -0.00000000
  12        -0.06856455
  13        -0.00000889
  14         0.00000000
  15        -0.00007581
  16         0.00032698
  17        -0.00005294
  18         0.00000000
  19         0.76151992
  20        -0.00020099
  21         0.00000000
  22         0.03959086
  23         0.00001412
  24        -0.00000890
  25        -0.00000000
  26        -0.06857324
  27        -0.00001141
  28        -0.00000000
  29         0.38803947
  30         0.18390697
  31         0.00000000
  32         0.02261345
  33         0.00879835
  34        -0.38836522
  35        -0.18396048
  36        -0.00000000
  37         0.02261999
  38        -0.00880673
  39        -0.38850707
  40        -0.18402041
  41         0.00000000
  42        -0.02262830
  43         0.00881052
  44         0.38812580
  45         0.18395991
  46         0.00000000
  47        -0.02262063
  48        -0.00880196
Sym=    14a  
Ene=    -0.0000
Spin= Alpha
Occup=    0.01893
   1         0.16052225
   2        -0.67243283
   3        -0.13365905
   4        -0.00000000
   5        -0.00004474
   6         0.91398123
   7        -0.00000000
   8        -0.00000628
   9         0.18332861
  10        -0.00501706
  11         0.00000000
  12        -0.00000331
  13        -0.03355285
  14        -0.00000000
  15        -0.16051838
  16         0.67243643
  17         0.13355017
  18        -0.00000000
  19        -0.00004103
  20         0.91396291
  21        -0.00000000
  22        -0.00000704
  23         0.18340919
  24         0.00500722
  25        -0.00000000
  26         0.00000209
  27         0.03353806
  28        -0.00000000
  29        -0.04082426
  30        -0.04865582
  31        -0.00000000
  32        -0.01265992
  33        -0.00716039
  34        -0.04089059
  35        -0.04867364
  36        -0.00000000
  37         0.01266290
  38        -0.00716114
  39         0.04089748
  40         0.04873224
  41        -0.00000000
  42         0.01267375
  43        -0.00717945
  44         0.04084608
  45         0.04869613
  46        -0.00000000
  47        -0.01267231
  48        -0.00717899
Sym=    15a  
Ene=     0.4804
Spin= Alpha
Occup=    0.00000
   1        -0.00168751
   2         0.10158763
   3        -1.82098340
   4        -0.00000000
   5         0.00031230
   6         0.25908743
   7         0.00000000
   8        -0.00300207
   9        -0.92305267
  10        -0.01712536
  11        -0.00000000
  12        -0.00005155
  13         0.05371590
  14         0.00000000
  15        -0.00169345
  16         0.10169594
  17        -1.82219151
  18        -0.00000000
  19        -0.00034464
  20        -0.25909907
  21         0.00000000
  22         0.00318461
  23         0.92268388
  24        -0.01713102
  25         0.00000000
  26        -0.00007442
  27         0.05372991
  28        -0.00000000
  29        -0.27693888
  30         1.27109852
  31        -0.00000000
  32        -0.06207436
  33        -0.03385045
  34        -0.27662001
  35         1.26607865
  36        -0.00000000
  37         0.06192615
  38        -0.03368372
  39        -0.27656118
  40         1.26598325
  41        -0.00000000
  42        -0.06192470
  43         0.03367597
  44        -0.27707375
  45         1.27165974
  46        -0.00000000
  47         0.06209782
  48         0.03387145
Sym=    16a  
Ene=     0.5006
Spin= Alpha
Occup=    0.00000
   1        -0.00115077
   2         0.01322076
   3        -0.10166950
   4         0.00000000
   5         0.08782711
   6         0.00062834
   7         0.00000000
   8        -0.62114536
   9         0.00727685
  10        -0.00011576
  11         0.00000000
  12        -0.09215108
  13         0.00190747
  14        -0.00000000
  15         0.00115934
  16        -0.01326583
  17         0.10134898
  18         0.00000000
  19         0.08757859
  20         0.00055104
  21        -0.00000000
  22        -0.61896488
  23         0.00750426
  24         0.00010854
  25        -0.00000000
  26         0.09211383
  27        -0.00189316
  28        -0.00000000
  29        -0.43544041
  30         1.30068341
  31        -0.00000000
  32        -0.04663744
  33        -0.05632890
  34         0.41345433
  35        -1.21507849
  36         0.00000000
  37        -0.04282120
  38         0.05495860
  39        -0.41333984
  40         1.21339518
  41        -0.00000000
  42        -0.04278309
  43         0.05490610
  44         0.43518470
  45        -1.29846984
  46         0.00000000
  47        -0.04657376
  48        -0.05626112
Sym=    17a  
Ene=     0.5016
Spin= Alpha
Occup=    0.00000
   1        -0.03954946
   2         0.45434938
   3        -3.51241495
   4        -0.00000000
   5        -0.00249899
   6         0.01858576
   7        -0.00000000
   8         0.01805237
   9         0.27221785
  10        -0.00410425
  11        -0.00000000
  12         0.00266890
  13         0.06559751
  14         0.00000000
  15         0.03955974
  16        -0.45443017
  17         3.51244303
  18        -0.00000000
  19        -0.00241129
  20         0.01857360
  21         0.00000000
  22         0.01724573
  23         0.27222203
  24         0.00410653
  25        -0.00000000
  26        -0.00265311
  27        -0.06558662
  28        -0.00000000
  29        -0.36761846
  30         1.43159942
  31        -0.00000000
  32        -0.06404288
  33        -0.02188544
  34        -0.39238536
  35         1.50468767
  36        -0.00000000
  37         0.06662062
  38        -0.02511717
  39         0.39221204
  40        -1.50387271
  41        -0.00000000
  42         0.06659428
  43        -0.02508850
  44         0.36756323
  45        -1.43219965
  46         0.00000000
  47        -0.06405750
  48        -0.02190371
Sym=    18a  
Ene=     0.5096
Spin= Alpha
Occup=    0.00000
   1        -0.00004621
   2         0.00028274
   3         0.00106577
   4         0.00000000
   5         0.24219264
   6        -0.00037155
   7        -0.00000000
   8        -2.24747590
   9         0.00127095
  10         0.00003104
  11        -0.00000000
  12        -0.04774396
  13        -0.00006209
  14        -0.00000000
  15        -0.00003518
  16         0.00014359
  17         0.00235390
  18         0.00000000
  19        -0.24222951
  20         0.00037148
  21         0.00000000
  22         2.24794890
  23        -0.00104022
  24         0.00003353
  25         0.00000000
  26        -0.04784190
  27        -0.00008305
  28         0.00000000
  29        -0.17792624
  30         1.99484990
  31        -0.00000000
  32        -0.05915240
  33        -0.06639732
  34         0.17860914
  35        -1.99725338
  36         0.00000000
  37        -0.05927043
  38         0.06648433
  39         0.17918540
  40        -1.99885083
  41         0.00000000
  42         0.05933729
  43        -0.06654962
  44        -0.17824926
  45         1.99555163
  46        -0.00000000
  47         0.05918077
  48         0.06644778
Sym=    19a  
Ene=     0.5841
Spin= Alpha
Occup=    0.00000
   1        -0.10335656
   2         0.84951740
   3        -1.14137055
   4        -0.00000000
   5        -0.00005031
   6        -0.28936088
   7         0.00000000
   8         0.00039950
   9         0.56603696
  10         0.04568632
  11        -0.00000000
  12         0.00000783
  13         0.02528862
  14        -0.00000000
  15        -0.10336458
  16         0.84961100
  17        -1.14158799
  18        -0.00000000
  19         0.00003617
  20         0.28936972
  21         0.00000000
  22        -0.00037231
  23        -0.56584241
  24         0.04569932
  25         0.00000000
  26         0.00001134
  27         0.02528340
  28         0.00000000
  29        -0.23445302
  30         0.57316281
  31        -0.00000000
  32        -0.03297503
  33         0.02035752
  34        -0.23451608
  35         0.57389121
  36         0.00000000
  37         0.03299740
  38         0.02033527
  39        -0.23451707
  40         0.57406459
  41         0.00000000
  42        -0.03299551
  43        -0.02032822
  44        -0.23438985
  45         0.57328954
  46        -0.00000000
  47         0.03297491
  48        -0.02035383
Sym=    20a  
Ene=     0.6179
Spin= Alpha
Occup=    0.00000
   1        -0.10219898
   2         0.84277648
   3        -2.16648661
   4        -0.00000000
   5        -0.00005220
   6         0.12404065
   7         0.00000000
   8         0.00040650
   9        -0.77692913
  10         0.00471547
  11        -0.00000000
  12         0.00000909
  13        -0.05515737
  14        -0.00000000
  15        -0.10218645
  16         0.84271973
  17        -2.16672764
  18         0.00000000
  19         0.00003946
  20        -0.12402615
  21        -0.00000000
  22        -0.00037559
  23         0.77648250
  24         0.00471959
  25         0.00000000
  26         0.00001195
  27        -0.05518563
  28         0.00000000
  29         0.40181026
  30         0.62574215
  31        -0.00000000
  32        -0.00209562
  33        -0.01486849
  34         0.40172088
  35         0.62652892
  36         0.00000000
  37         0.00211920
  38        -0.01489233
  39         0.40175950
  40         0.62627717
  41         0.00000000
  42        -0.00210003
  43         0.01488719
  44         0.40189745
  45         0.62547900
  46        -0.00000000
  47         0.00207861
  48         0.01486055
Sym=    21a  
Ene=     0.6509
Spin= Alpha
Occup=    0.00000
   1         0.01675286
   2        -0.10445805
   3        -4.08007350
   4         0.00000000
   5        -0.00023254
   6        -0.34985119
   7         0.00000000
   8         0.00075839
   9         3.90201772
  10        -0.05824022
  11        -0.00000000
  12        -0.00000762
  13         0.00539931
  14        -0.00000000
  15        -0.01675332
  16         0.10446820
  17         4.07986321
  18         0.00000000
  19        -0.00022493
  20        -0.34990355
  21        -0.00000000
  22         0.00068920
  23         3.90218968
  24         0.05823930
  25         0.00000000
  26         0.00001004
  27        -0.00540162
  28        -0.00000000
  29        -0.12116666
  30        -0.76150147
  31        -0.00000000
  32         0.03417517
  33         0.00034071
  34        -0.12070473
  35        -0.76072957
  36         0.00000000
  37        -0.03410254
  38         0.00034726
  39         0.12074202
  40         0.76087504
  41        -0.00000000
  42        -0.03410748
  43         0.00035971
  44         0.12122247
  45         0.76151257
  46         0.00000000
  47         0.03417584
  48         0.00034844
Sym=    22a  
Ene=     0.7044
Spin= Alpha
Occup=    0.00000
   1         0.00000000
   2         0.00000000
   3        -0.00000000
   4         0.57066225
   5         0.00000000
   6        -0.00000000
   7        -1.30528379
   8        -0.00000000
   9         0.00000000
  10        -0.00000000
  11         0.01407719
  12         0.00000000
  13        -0.00000000
  14         0.00000059
  15        -0.00000000
  16         0.00000000
  17         0.00000000
  18        -0.56148322
  19         0.00000000
  20        -0.00000000
  21         1.29698317
  22        -0.00000000
  23         0.00000000
  24         0.00000000
  25         0.01489333
  26        -0.00000000
  27         0.00000000
  28        -0.00000007
  29         0.00000000
  30         0.00000000
  31         0.01743508
  32        -0.00000000
  33         0.00000000
  34        -0.00000000
  35        -0.00000000
  36         0.01743296
  37        -0.00000000
  38        -0.00000000
  39         0.00000000
  40         0.00000000
  41        -0.01723581
  42        -0.00000000
  43        -0.00000000
  44        -0.00000000
  45        -0.00000000
  46        -0.01723871
  47        -0.00000000
  48         0.00000000
Sym=    23a  
Ene=     0.7066
Spin= Alpha
Occup=    0.00000
   1        -0.00000000
   2         0.00000000
   3         0.00000000
   4         0.68772018
   5        -0.00000000
   6         0.00000000
   7        -0.61526758
   8         0.00000000
   9        -0.00000000
  10         0.00000000
  11        -0.06190998
  12         0.00000000
  13         0.00000000
  14        -0.00000004
  15         0.00000000
  16         0.00000000
  17        -0.00000000
  18         0.69527920
  19        -0.00000000
  20         0.00000000
  21        -0.63254838
  22         0.00000000
  23        -0.00000000
  24        -0.00000000
  25         0.06171715
  26         0.00000000
  27         0.00000000
  28        -0.00000001
  29        -0.00000000
  30        -0.00000000
  31         0.01465916
  32         0.00000000
  33         0.00000000
  34        -0.00000000
  35         0.00000000
  36         0.01465883
  37         0.00000000
  38        -0.00000000
  39        -0.00000000
  40        -0.00000000
  41         0.01489312
  42         0.00000000
  43         0.00000000
  44         0.00000000
  45         0.00000000
  46         0.01489358
  47         0.00000000
  48        -0.00000000
Sym=    24a  
Ene=     0.7113
Spin= Alpha
Occup=    0.00000
   1         0.00002248
   2        -0.00026473
   3         0.00417801
   4         0.00000000
   5        -0.42529852
   6         0.00020984
   7        -0.00000000
   8         1.40008583
   9        -0.00284429
  10         0.00004402
  11         0.00000000
  12        -0.00015041
  13         0.00001472
  14         0.00000000
  15        -0.00001507
  16         0.00019735
  17        -0.00401176
  18        -0.00000000
  19        -0.42533285
  20         0.00021382
  21         0.00000000
  22         1.40025155
  23        -0.00287075
  24        -0.00004450
  25         0.00000000
  26         0.00014695
  27        -0.00001631
  28         0.00000000
  29        -0.28355043
  30        -0.93343334
  31         0.00000000
  32         0.07231058
  33        -0.00264778
  34         0.28327256
  35         0.93436240
  36         0.00000000
  37         0.07236317
  38         0.00265396
  39        -0.28323213
  40        -0.93461753
  41        -0.00000000
  42         0.07237468
  43         0.00264251
  44         0.28350875
  45         0.93354001
  46        -0.00000000
  47         0.07231800
  48        -0.00263273
Sym=    25a  
Ene=     0.7869
Spin= Alpha
Occup=    0.00000
   1        -0.10967817
   2         1.17908737
   3        -7.60317282
   4        -0.00000000
   5        -0.00014881
   6         0.00238044
   7         0.00000000
   8         0.00049671
   9         2.07426689
  10        -0.03277141
  11        -0.00000000
  12         0.00000085
  13        -0.03429901
  14         0.00000000
  15         0.10966202
  16        -1.17897437
  17         7.60286703
  18         0.00000000
  19        -0.00014653
  20         0.00237955
  21        -0.00000000
  22         0.00048161
  23         2.07433349
  24         0.03278187
  25        -0.00000000
  26        -0.00000131
  27         0.03432086
  28         0.00000000
  29         0.37877194
  30         0.74232279
  31        -0.00000000
  32         0.00719869
  33        -0.03479034
  34         0.37890039
  35         0.74308281
  36         0.00000000
  37        -0.00714605
  38        -0.03478642
  39        -0.37890226
  40        -0.74293213
  41        -0.00000000
  42        -0.00715783
  43        -0.03477532
  44        -0.37877929
  45        -0.74218355
  46         0.00000000
  47         0.00721056
  48        -0.03477952
Sym=    26a  
Ene=     1.2704
Spin= Alpha
Occup=    0.00000
   1         0.00000331
   2        -0.00003181
   3         0.00009388
   4        -0.00000000
   5         0.25108899
   6        -0.00000736
   7        -0.00000000
   8        -3.33877257
   9         0.00002824
  10        -0.00000028
  11         0.00000000
  12         0.10008614
  13         0.00000384
  14         0.00000000
  15         0.00000446
  16        -0.00004072
  17         0.00012808
  18        -0.00000000
  19        -0.25109934
  20         0.00000645
  21        -0.00000000
  22         3.33878238
  23        -0.00002773
  24         0.00000028
  25        -0.00000000
  26         0.10010239
  27         0.00000403
  28        -0.00000000
  29         0.75782219
  30         1.04551032
  31         0.00000000
  32        -0.05918511
  33         0.09570666
  34        -0.75780873
  35        -1.04561610
  36         0.00000000
  37        -0.05918023
  38        -0.09569906
  39        -0.75780246
  40        -1.04563712
  41        -0.00000000
  42         0.05918590
  43         0.09570265
  44         0.75781661
  45         1.04550972
  46         0.00000000
  47         0.05919246
  48        -0.09571145
Sym=    27a  
Ene=     1.4299
Spin= Alpha
Occup=    0.00000
   1         0.00000000
   2        -0.00000000
   3        -0.00000000
   4        -0.00000127
   5         0.00000000
   6         0.00000000
   7         0.00000187
   8        -0.00000000
   9         0.00000000
  10        -0.00000000
  11         0.00000118
  12        -0.00000000
  13        -0.00000000
  14         0.32838231
  15        -0.00000000
  16         0.00000000
  17         0.00000000
  18         0.00000164
  19         0.00000000
  20         0.00000000
  21        -0.00000252
  22        -0.00000000
  23         0.00000000
  24         0.00000000
  25        -0.00000049
  26         0.00000000
  27        -0.00000000
  28         0.32841188
  29         0.00000000
  30         0.00000000
  31         0.35247975
  32         0.00000000
  33        -0.00000000
  34         0.00000000
  35        -0.00000000
  36        -0.35247601
  37        -0.00000000
  38        -0.00000000
  39        -0.00000000
  40         0.00000000
  41         0.35247943
  42        -0.00000000
  43         0.00000000
  44         0.00000000
  45        -0.00000000
  46        -0.35248048
  47        -0.00000000
  48        -0.00000000
Sym=    28a  
Ene=     1.4967
Spin= Alpha
Occup=    0.00000
   1        -0.00000000
   2         0.00000000
   3         0.00000000
   4        -0.00000049
   5        -0.00000000
   6         0.00000000
   7         0.00000144
   8         0.00000000
   9        -0.00000000
  10         0.00000000
  11        -0.00000403
  12         0.00000000
  13        -0.00000000
  14        -0.25882129
  15         0.00000000
  16        -0.00000000
  17         0.00000000
  18        -0.00000012
  19         0.00000000
  20        -0.00000000
  21         0.00000099
  22        -0.00000000
  23        -0.00000000
  24         0.00000000
  25         0.00000389
  26         0.00000000
  27        -0.00000000
  28         0.25883020
  29        -0.00000000
  30        -0.00000000
  31        -0.40009584
  32        -0.00000000
  33         0.00000000
  34        -0.00000000
  35         0.00000000
  36         0.40008853
  37         0.00000000
  38        -0.00000000
  39        -0.00000000
  40        -0.00000000
  41         0.40006559
  42         0.00000000
  43         0.00000000
  44         0.00000000
  45        -0.00000000
  46        -0.40007197
  47        -0.00000000
  48        -0.00000000
Sym=    29a  
Ene=     1.5360
Spin= Alpha
Occup=    0.00000
   1        -0.00000000
   2         0.00000000
   3        -0.00000000
   4         0.07134118
   5        -0.00000000
   6         0.00000000
   7        -0.13003532
   8         0.00000000
   9        -0.00000000
  10         0.00000000
  11         0.41961858
  12         0.00000000
  13         0.00000000
  14        -0.00000387
  15        -0.00000000
  16         0.00000000
  17        -0.00000000
  18         0.07133902
  19        -0.00000000
  20        -0.00000000
  21        -0.13005650
  22        -0.00000000
  23         0.00000000
  24        -0.00000000
  25        -0.41966397
  26        -0.00000000
  27         0.00000000
  28         0.00000197
  29        -0.00000000
  30        -0.00000000
  31         0.30624216
  32        -0.00000000
  33         0.00000000
  34         0.00000000
  35         0.00000000
  36         0.30625115
  37        -0.00000000
  38        -0.00000000
  39         0.00000000
  40         0.00000000
  41         0.30624985
  42         0.00000000
  43         0.00000000
  44        -0.00000000
  45         0.00000000
  46         0.30624314
  47         0.00000000
  48        -0.00000000
Sym=    30a  
Ene=     1.8291
Spin= Alpha
Occup=    0.00000
   1         0.00000122
   2        -0.00001286
   3        -0.00000507
   4        -0.00000000
   5         0.15276960
   6         0.00000501
   7         0.00000000
   8        -1.92226632
   9        -0.00001817
  10         0.00000586
  11         0.00000000
  12        -0.07003090
  13         0.00001312
  14        -0.00000000
  15         0.00000157
  16        -0.00001523
  17         0.00002019
  18        -0.00000000
  19        -0.15271340
  20        -0.00000561
  21        -0.00000000
  22         1.92210896
  23         0.00003042
  24         0.00000694
  25        -0.00000000
  26        -0.06998707
  27         0.00001409
  28         0.00000000
  29         0.42301149
  30         0.61766606
  31         0.00000000
  32         0.33041129
  33        -0.36821165
  34        -0.42298936
  35        -0.61768061
  36         0.00000000
  37         0.33042253
  38         0.36824271
  39        -0.42293944
  40        -0.61762277
  41         0.00000000
  42        -0.33032281
  43        -0.36816544
  44         0.42296382
  45         0.61760362
  46         0.00000000
  47        -0.33030864
  48         0.36812932
Sym=    31a  
Ene=     1.8907
Spin= Alpha
Occup=    0.00000
   1        -0.00000058
   2        -0.00000572
   3         0.00008475
   4         0.00000000
   5         0.20794547
   6         0.00001408
   7         0.00000000
   8        -0.59244386
   9        -0.00014277
  10         0.00002056
  11        -0.00000000
  12        -0.23031646
  13         0.00004376
  14        -0.00000000
  15         0.00000003
  16         0.00000311
  17        -0.00020963
  18        -0.00000000
  19         0.20799533
  20        -0.00003174
  21        -0.00000000
  22        -0.59305443
  23         0.00001832
  24         0.00001296
  25        -0.00000000
  26         0.23035242
  27         0.00002209
  28        -0.00000000
  29         0.21594649
  30         0.20370284
  31        -0.00000000
  32         0.37408751
  33        -0.26717584
  34        -0.21588721
  35        -0.20370265
  36        -0.00000000
  37         0.37411898
  38         0.26729479
  39         0.21606554
  40         0.20394912
  41         0.00000000
  42         0.37418257
  43         0.26730668
  44        -0.21603886
  45        -0.20386397
  46         0.00000000
  47         0.37418192
  48        -0.26735128
Sym=    32a  
Ene=     1.8978
Spin= Alpha
Occup=    0.00000
   1         0.00047997
   2        -0.04196445
   3        -0.57257072
   4         0.00000000
   5        -0.00003618
   6         0.21890684
   7         0.00000000
   8         0.00019314
   9        -0.78644052
  10         0.17292660
  11        -0.00000000
  12         0.00002483
  13         0.30977372
  14        -0.00000000
  15         0.00047621
  16        -0.04192839
  17        -0.57252870
  18        -0.00000000
  19        -0.00001035
  20        -0.21890937
  21         0.00000000
  22        -0.00006489
  23         0.78653656
  24         0.17294749
  25         0.00000000
  26        -0.00002166
  27         0.30982287
  28         0.00000000
  29         0.21153794
  30         0.19393201
  31        -0.00000000
  32        -0.08299335
  33         0.39629868
  34         0.21162687
  35         0.19408078
  36        -0.00000000
  37         0.08288580
  38         0.39621694
  39         0.21161392
  40         0.19404135
  41        -0.00000000
  42        -0.08296688
  43        -0.39629612
  44         0.21161243
  45         0.19398740
  46        -0.00000000
  47         0.08291848
  48        -0.39626912
Sym=    33a  
Ene=     1.9759
Spin= Alpha
Occup=    0.00000
   1        -0.00000000
   2         0.00000000
   3         0.00000000
   4        -0.12589370
   5        -0.00000000
   6         0.00000000
   7        -0.53193684
   8        -0.00000000
   9        -0.00000000
  10         0.00000000
  11         0.15603516
  12        -0.00000000
  13         0.00000000
  14        -0.00000242
  15         0.00000000
  16        -0.00000000
  17        -0.00000000
  18         0.12588766
  19         0.00000000
  20         0.00000000
  21         0.53192307
  22        -0.00000000
  23        -0.00000000
  24        -0.00000000
  25         0.15604733
  26         0.00000000
  27        -0.00000000
  28        -0.00000294
  29         0.00000000
  30         0.00000000
  31         0.54070611
  32         0.00000000
  33         0.00000000
  34        -0.00000000
  35        -0.00000000
  36         0.54070602
  37         0.00000000
  38         0.00000000
  39         0.00000000
  40        -0.00000000
  41        -0.54068121
  42         0.00000000
  43         0.00000000
  44        -0.00000000
  45        -0.00000000
  46        -0.54068272
  47        -0.00000000
  48         0.00000000
Sym=    34a  
Ene=     1.9965
Spin= Alpha
Occup=    0.00000
   1         0.05993884
   2        -0.40201438
   3        -2.08656277
   4        -0.00000000
   5         0.00001748
   6         0.05627008
   7        -0.00000000
   8        -0.00002917
   9         1.76028512
  10        -0.11063373
  11         0.00000000
  12        -0.00001162
  13        -0.24537668
  14         0.00000000
  15        -0.05994820
  16         0.40210993
  17         2.08656437
  18         0.00000000
  19         0.00001894
  20         0.05629515
  21         0.00000000
  22        -0.00004243
  23         1.76016375
  24         0.11057159
  25         0.00000000
  26         0.00001197
  27         0.24542583
  28         0.00000000
  29        -0.13727498
  30        -0.09206252
  31         0.00000000
  32         0.07332727
  33        -0.48697154
  34        -0.13728585
  35        -0.09209700
  36         0.00000000
  37        -0.07329510
  38        -0.48696668
  39         0.13728423
  40         0.09208001
  41        -0.00000000
  42        -0.07324046
  43        -0.48691346
  44         0.13726715
  45         0.09203839
  46        -0.00000000
  47         0.07327596
  48        -0.48692177
Sym=    35a  
Ene=     2.0590
Spin= Alpha
Occup=    0.00000
   1        -0.00000104
   2         0.00000799
   3         0.00001463
   4         0.00000000
   5         0.13078917
   6         0.00000147
   7        -0.00000000
   8         0.11618704
   9        -0.00002608
  10         0.00000310
  11         0.00000000
  12        -0.42590527
  13         0.00000176
  14        -0.00000000
  15         0.00000161
  16        -0.00001310
  17        -0.00001015
  18        -0.00000000
  19         0.13080290
  20         0.00000176
  21        -0.00000000
  22         0.11619915
  23        -0.00002458
  24        -0.00000059
  25        -0.00000000
  26         0.42594437
  27        -0.00000453
  28        -0.00000000
  29         0.08989692
  30        -0.21627420
  31        -0.00000000
  32         0.00838292
  33         0.40806863
  34        -0.08989521
  35         0.21628735
  36         0.00000000
  37         0.00838363
  38        -0.40805468
  39         0.08990397
  40        -0.21630228
  41         0.00000000
  42         0.00837062
  43        -0.40808045
  44        -0.08990581
  45         0.21628682
  46         0.00000000
  47         0.00837345
  48         0.40809318
Sym=    36a  
Ene=     2.1180
Spin= Alpha
Occup=    0.00000
   1        -0.06610011
   2         0.60034975
   3        -0.28443461
   4        -0.00000000
   5        -0.00000001
   6        -0.03494683
   7         0.00000000
   8        -0.00000580
   9         0.28850571
  10        -0.35906563
  11         0.00000000
  12        -0.00000109
  13         0.44033381
  14         0.00000000
  15        -0.06608756
  16         0.60030139
  17        -0.28512937
  18         0.00000000
  19        -0.00000280
  20         0.03487811
  21        -0.00000000
  22         0.00001398
  23        -0.28898580
  24        -0.35913530
  25        -0.00000000
  26         0.00000120
  27         0.44033309
  28        -0.00000000
  29         0.05140173
  30        -0.01966478
  31        -0.00000000
  32         0.27056588
  33        -0.07478690
  34         0.05139878
  35        -0.01966716
  36         0.00000000
  37        -0.27056639
  38        -0.07479023
  39         0.05138442
  40        -0.01970210
  41         0.00000000
  42         0.27062408
  43         0.07487182
  44         0.05138668
  45        -0.01968647
  46        -0.00000000
  47        -0.27062843
  48         0.07487607
Sym=    37a  
Ene=     2.2195
Spin= Alpha
Occup=    0.00000
   1        -0.00000000
   2         0.00000000
   3        -0.00000000
   4        -0.21145353
   5         0.00000000
   6        -0.00000000
   7        -0.13099371
   8         0.00000000
   9         0.00000000
  10        -0.00000000
  11        -0.49222625
  12        -0.00000000
  13         0.00000000
  14        -0.00000056
  15        -0.00000000
  16        -0.00000000
  17         0.00000000
  18        -0.21144446
  19        -0.00000000
  20         0.00000000
  21        -0.13100296
  22        -0.00000000
  23         0.00000000
  24        -0.00000000
  25         0.49230577
  26        -0.00000000
  27         0.00000000
  28         0.00000087
  29        -0.00000000
  30         0.00000000
  31         0.46941240
  32        -0.00000000
  33         0.00000000
  34         0.00000000
  35         0.00000000
  36         0.46941268
  37        -0.00000000
  38        -0.00000000
  39        -0.00000000
  40         0.00000000
  41         0.46945395
  42         0.00000000
  43         0.00000000
  44        -0.00000000
  45        -0.00000000
  46         0.46945423
  47         0.00000000
  48        -0.00000000
Sym=    38a  
Ene=     2.3850
Spin= Alpha
Occup=    0.00000
   1         0.00000000
   2        -0.00000000
   3         0.00000000
   4         0.00000038
   5        -0.00000000
   6        -0.00000000
   7        -0.00000260
   8        -0.00000000
   9        -0.00000000
  10         0.00000000
  11         0.00000085
  12         0.00000000
  13        -0.00000000
  14         0.66890689
  15        -0.00000000
  16         0.00000000
  17        -0.00000000
  18        -0.00000029
  19         0.00000000
  20        -0.00000000
  21         0.00000251
  22        -0.00000000
  23        -0.00000000
  24        -0.00000000
  25         0.00000024
  26        -0.00000000
  27         0.00000000
  28         0.66905355
  29        -0.00000000
  30         0.00000000
  31        -0.42083962
  32        -0.00000000
  33         0.00000000
  34         0.00000000
  35         0.00000000
  36         0.42084271
  37         0.00000000
  38         0.00000000
  39        -0.00000000
  40         0.00000000
  41        -0.42093129
  42         0.00000000
  43         0.00000000
  44        -0.00000000
  45        -0.00000000
  46         0.42092817
  47        -0.00000000
  48         0.00000000
Sym=    39a  
Ene=     2.4716
Spin= Alpha
Occup=    0.00000
   1        -0.03392651
   2         0.40576603
   3        -2.96985673
   4        -0.00000000
   5         0.00000889
   6         0.47800188
   7        -0.00000000
   8        -0.00000708
   9         1.77970166
  10        -0.25918784
  11        -0.00000000
  12         0.00000430
  13         0.35549557
  14         0.00000000
  15         0.03392074
  16        -0.40572325
  17         2.96984762
  18         0.00000000
  19         0.00001029
  20         0.47799462
  21         0.00000000
  22        -0.00001510
  23         1.77967953
  24         0.25918113
  25        -0.00000000
  26        -0.00000412
  27        -0.35542403
  28         0.00000000
  29        -0.05072507
  30        -0.15956461
  31        -0.00000000
  32         0.51056831
  33        -0.10175611
  34        -0.05071743
  35        -0.15958067
  36         0.00000000
  37        -0.51055746
  38        -0.10175639
  39         0.05073006
  40         0.15957436
  41        -0.00000000
  42        -0.51052365
  43        -0.10173864
  44         0.05073484
  45         0.15955273
  46         0.00000000
  47         0.51053688
  48        -0.10173791
Sym=    40a  
Ene=     2.5791
Spin= Alpha
Occup=    0.00000
   1         0.00000113
   2        -0.00000770
   3         0.00000827
   4        -0.00000000
   5        -0.72855506
   6        -0.00000876
   7        -0.00000000
   8        -0.49398158
   9         0.00000128
  10        -0.00000839
  11        -0.00000000
  12         0.14042528
  13         0.00000092
  14        -0.00000000
  15         0.00000109
  16        -0.00000738
  17         0.00000439
  18        -0.00000000
  19         0.72856865
  20         0.00000842
  21        -0.00000000
  22         0.49397026
  23        -0.00000508
  24        -0.00000946
  25         0.00000000
  26         0.14039814
  27         0.00000120
  28        -0.00000000
  29         0.25047349
  30         0.40850395
  31         0.00000000
  32        -0.43082573
  33        -0.47248489
  34        -0.25046529
  35        -0.40851069
  36         0.00000000
  37        -0.43080883
  38         0.47248627
  39        -0.25048205
  40        -0.40849288
  41         0.00000000
  42         0.43081333
  43        -0.47247746
  44         0.25049013
  45         0.40848403
  46        -0.00000000
  47         0.43082851
  48         0.47247605
Sym=    41a  
Ene=     2.7098
Spin= Alpha
Occup=    0.00000
   1         0.01531520
   2        -0.03945589
   3        -0.50900155
   4         0.00000000
   5         0.00000622
   6        -0.34386306
   7         0.00000000
   8         0.00003883
   9        -0.21077926
  10        -0.59386405
  11         0.00000000
  12        -0.00000473
  13        -0.08803120
  14         0.00000000
  15         0.01532506
  16        -0.03952146
  17        -0.50871809
  18        -0.00000000
  19        -0.00000855
  20         0.34382560
  21         0.00000000
  22        -0.00003809
  23         0.21091376
  24        -0.59393487
  25         0.00000000
  26        -0.00000375
  27        -0.08807024
  28        -0.00000000
  29         0.10999097
  30         0.23104311
  31        -0.00000000
  32        -0.41541065
  33         0.25843024
  34         0.11000285
  35         0.23108834
  36         0.00000000
  37         0.41541960
  38         0.25841469
  39         0.10999432
  40         0.23107868
  41         0.00000000
  42        -0.41544390
  43        -0.25845310
  44         0.10998023
  45         0.23103453
  46        -0.00000000
  47         0.41543340
  48        -0.25846951
Sym=    42a  
Ene=     2.7178
Spin= Alpha
Occup=    0.00000
   1         0.00000000
   2        -0.00000000
   3        -0.00000000
   4         0.00000004
   5        -0.00000000
   6        -0.00000000
   7        -0.00000070
   8         0.00000000
   9        -0.00000000
  10        -0.00000000
  11         0.00000108
  12         0.00000000
  13        -0.00000000
  14        -0.77330083
  15         0.00000000
  16         0.00000000
  17        -0.00000000
  18        -0.00000003
  19         0.00000000
  20         0.00000000
  21         0.00000112
  22         0.00000000
  23         0.00000000
  24        -0.00000000
  25         0.00000069
  26         0.00000000
  27        -0.00000000
  28         0.77315840
  29         0.00000000
  30         0.00000000
  31         0.38619287
  32        -0.00000000
  33         0.00000000
  34         0.00000000
  35         0.00000000
  36        -0.38619361
  37         0.00000000
  38         0.00000000
  39         0.00000000
  40         0.00000000
  41        -0.38611957
  42        -0.00000000
  43        -0.00000000
  44         0.00000000
  45         0.00000000
  46         0.38611853
  47         0.00000000
  48        -0.00000000
Sym=    43a  
Ene=     2.8082
Spin= Alpha
Occup=    0.00000
   1        -0.00000000
   2         0.00000000
   3        -0.00000000
   4        -0.07927175
   5        -0.00000000
   6         0.00000000
   7        -0.04525851
   8        -0.00000000
   9         0.00000000
  10         0.00000000
  11         0.90607054
  12        -0.00000000
  13         0.00000000
  14         0.00000062
  15        -0.00000000
  16        -0.00000000
  17         0.00000000
  18         0.07929317
  19         0.00000000
  20         0.00000000
  21         0.04526434
  22        -0.00000000
  23         0.00000000
  24        -0.00000000
  25         0.90600419
  26         0.00000000
  27        -0.00000000
  28        -0.00000076
  29         0.00000000
  30         0.00000000
  31        -0.21259594
  32        -0.00000000
  33        -0.00000000
  34        -0.00000000
  35        -0.00000000
  36        -0.21259532
  37        -0.00000000
  38         0.00000000
  39         0.00000000
  40        -0.00000000
  41         0.21256594
  42        -0.00000000
  43        -0.00000000
  44        -0.00000000
  45        -0.00000000
  46         0.21256519
  47        -0.00000000
  48        -0.00000000
Sym=    44a  
Ene=     3.0339
Spin= Alpha
Occup=    0.00000
   1         0.12969866
   2        -0.90075715
   3        -0.45534389
   4         0.00000000
   5         0.00000206
   6        -0.46180017
   7         0.00000000
   8         0.00003084
   9        -0.18578208
  10         0.18718800
  11         0.00000000
  12        -0.00000167
  13         0.70328680
  14        -0.00000000
  15         0.12972265
  16        -0.90089188
  17        -0.45606006
  18         0.00000000
  19         0.00000367
  20         0.46195485
  21         0.00000000
  22        -0.00003094
  23         0.18561525
  24         0.18724876
  25         0.00000000
  26        -0.00000586
  27         0.70354878
  28         0.00000000
  29         0.59126635
  30         0.20392407
  31        -0.00000000
  32        -0.59023837
  33        -0.48955823
  34         0.59127507
  35         0.20395852
  36        -0.00000000
  37         0.59024229
  38        -0.48956560
  39         0.59146048
  40         0.20405160
  41        -0.00000000
  42        -0.59038044
  43         0.48971313
  44         0.59145922
  45         0.20401555
  46        -0.00000000
  47         0.59038427
  48         0.48971010
Sym=    45a  
Ene=     3.1156
Spin= Alpha
Occup=    0.00000
   1        -0.00003153
   2         0.00018881
   3         0.00022751
   4        -0.00000000
   5         0.85298423
   6        -0.00004338
   7        -0.00000000
   8         0.47782625
   9        -0.00006529
  10         0.00016520
  11         0.00000000
  12         0.77369920
  13        -0.00007779
  14         0.00000000
  15         0.00003088
  16        -0.00018449
  17        -0.00022422
  18         0.00000000
  19         0.85303424
  20        -0.00004565
  21         0.00000000
  22         0.47789382
  23        -0.00006493
  24        -0.00016711
  25         0.00000000
  26        -0.77384676
  27         0.00007462
  28         0.00000000
  29        -0.64512280
  30        -0.32787723
  31        -0.00000000
  32         0.65333754
  33         0.42755158
  34         0.64498489
  35         0.32782298
  36        -0.00000000
  37         0.65316455
  38        -0.42751407
  39        -0.64507438
  40        -0.32783163
  41         0.00000000
  42         0.65323235
  43        -0.42752812
  44         0.64520766
  45         0.32788204
  46        -0.00000000
  47         0.65339911
  48         0.42755816
Sym=    46a  
Ene=     3.1464
Spin= Alpha
Occup=    0.00000
   1         0.16083891
   2        -0.94756941
   3        -1.11983906
   4         0.00000000
   5         0.00015101
   6         0.29807315
   7         0.00000000
   8         0.00009841
   9         0.17121107
  10        -0.95703615
  11         0.00000000
  12         0.00014126
  13         0.32941742
  14        -0.00000000
  15        -0.16082404
  16         0.94746599
  17         1.11980335
  18        -0.00000000
  19         0.00015156
  20         0.29813899
  21        -0.00000000
  22         0.00010293
  23         0.17122845
  24         0.95701281
  25        -0.00000000
  26        -0.00014197
  27        -0.32934754
  28         0.00000000
  29         0.31956458
  30         0.22048348
  31        -0.00000000
  32        -0.44892640
  33        -0.02570078
  34         0.31979994
  35         0.22062330
  36        -0.00000000
  37         0.44916232
  38        -0.02585952
  39        -0.31973882
  40        -0.22060647
  41        -0.00000000
  42         0.44909170
  43        -0.02582580
  44        -0.31950206
  45        -0.22046045
  46         0.00000000
  47        -0.44885478
  48        -0.02566626
Sym=    47a  
Ene=     3.4123
Spin= Alpha
Occup=    0.00000
   1        -0.06915038
   2         0.39258320
   3         1.44454413
   4        -0.00000000
   5        -0.00001281
   6         0.63116029
   7        -0.00000000
   8        -0.00001792
   9        -0.18900005
  10        -0.58069201
  11         0.00000000
  12        -0.00001455
  13        -0.84340478
  14        -0.00000000
  15         0.06911374
  16        -0.39232574
  17        -1.44444752
  18         0.00000000
  19        -0.00001190
  20         0.63105849
  21        -0.00000000
  22        -0.00002114
  23        -0.18905850
  24         0.58060244
  25         0.00000000
  26         0.00001491
  27         0.84320528
  28        -0.00000000
  29        -0.58754450
  30        -0.25913955
  31         0.00000000
  32         0.41289559
  33         0.52967375
  34        -0.58756821
  35        -0.25916955
  36         0.00000000
  37        -0.41291817
  38         0.52969177
  39         0.58741417
  40         0.25912255
  41         0.00000000
  42        -0.41277770
  43         0.52955709
  44         0.58738936
  45         0.25909060
  46        -0.00000000
  47         0.41275535
  48         0.52953918
Sym=    48a  
Ene=     3.6716
Spin= Alpha
Occup=    0.00000
   1         0.00000021
   2        -0.00000056
   3        -0.00001265
   4        -0.00000000
   5         0.45250597
   6        -0.00000048
   7         0.00000000
   8         0.74313133
   9        -0.00000507
  10        -0.00000047
  11        -0.00000000
  12         1.23312312
  13         0.00000221
  14         0.00000000
  15         0.00000003
  16         0.00000024
  17        -0.00001138
  18         0.00000000
  19        -0.45241222
  20         0.00000169
  21         0.00000000
  22        -0.74306351
  23         0.00000433
  24        -0.00000013
  25         0.00000000
  26         1.23301368
  27         0.00000176
  28        -0.00000000
  29        -0.69996655
  30        -0.25353331
  31         0.00000000
  32         0.57421054
  33         0.16268909
  34         0.69996985
  35         0.25354635
  36        -0.00000000
  37         0.57421614
  38        -0.16269020
  39         0.69989086
  40         0.25349955
  41         0.00000000
  42        -0.57414340
  43         0.16264677
  44        -0.69988790
  45        -0.25348800
  46         0.00000000
  47        -0.57413855
  48        -0.16264594
