15

C     -3.4018549340   -0.2632244689   -0.0545123899
C     -2.1195968877    0.5692504033   -0.1256082105
H     -3.3463050445   -1.1655221329   -0.6983206595
H     -4.2979114739    0.3242008210   -0.4088535794
H     -3.6331217392   -0.5866863356    0.9827638411
H     -2.2005488847    1.4718869081    0.5193700721
H     -1.9104238821    0.8932678970   -1.1640690311
C     -0.5593342215   -0.3062123209    0.4227274501
C      0.6918998877    0.5068791726    0.4032238600
C      1.7880831549    0.2307808203   -0.3376229545
H     -0.4361577868   -1.2176371322   -0.2051375485
H     -0.8374892246   -0.6053392795    1.4554402142
H      0.7165789902    1.4006652532    1.0579622681
H      1.8297898587   -0.6603754022   -0.9943785616
H      2.6853621420    0.8793909812   -0.3121898054
