15

C     -3.3660992092   -0.2665102211   -0.0506030070
C     -2.0772780466    0.5575834669   -0.1163164114
H     -3.3121199096   -1.1693680193   -0.6938420942
H     -4.2554472747    0.3260780788   -0.4064422039
H     -3.6000697145   -0.5912360598    0.9856435035
H     -2.1601882677    1.4626575811    0.5254885957
H     -1.8690220124    0.8854250667   -1.1543756288
C     -0.5985236409   -0.2935654359    0.4131607929
C      0.6597572499    0.5128942249    0.3978840819
C      1.7562299461    0.2310135438   -0.3383479674
H     -0.4762359626   -1.2051881333   -0.2145527137
H     -0.8680614853   -0.6005341654    1.4468742800
H      0.6842624496    1.4076914249    1.0508617787
H      1.7953551041   -0.6600366237   -0.9945046943
H      2.6564115939    0.8744201973   -0.3101342725
