15

C     -3.7981295131   -0.2205814646   -0.1006829645
C     -2.6056996607    0.6979861912   -0.2285744115
H     -3.7149427118   -1.1198113059   -0.7455480644
H     -4.7565727723    0.2999569418   -0.4334299491
H     -3.9887466482   -0.5343282593    0.9476874922
H     -2.6427010412    1.5724222980    0.4484789416
H     -2.3637908838    0.9798023013   -1.2660770632
C     -0.1080088412   -0.4462508729    0.5340510384
C      1.0489800200    0.4358197798    0.4670162483
C      2.1358687908    0.2268903308   -0.3295964705
H      0.0026654510   -1.3524989978   -0.0978235667
H     -0.4985947851   -0.6601708979    1.5387915693
H      1.0650517389    1.3238392823    1.1318700393
H      2.2020705141   -0.6623884353   -0.9906718839
H      2.9915097671    0.9306375510   -0.3346870858
