15

C     -3.4735102585   -0.2563171787   -0.0624946955
C     -2.2053426484    0.5926198354   -0.1442392107
H     -3.4142824365   -1.1576564488   -0.7071718823
H     -4.3823999144    0.3202627117   -0.4135771132
H     -3.6988052106   -0.5774693496    0.9768316743
H     -2.2811630351    1.4902928150    0.5069527791
H     -1.9931049342    0.9089623043   -1.1832156035
C     -0.4798488740   -0.3315668477    0.4421803212
C      0.7563449385    0.4945902490    0.4141745547
C      1.8516559113    0.2302450994   -0.3361805943
H     -0.3561179152   -1.2424251769   -0.1861184833
H     -0.7762340970   -0.6150435179    1.4720123858
H      0.7808406067    1.3866385540    1.0719458292
H      1.8983134693   -0.6609652546   -0.9940068160
H      2.7426225583    0.8891577197   -0.3162963845
