15

C     -3.9434109857   -0.2028377123   -0.1185640848
C     -2.7887695768    0.7446714426   -0.2661290271
H     -3.8466353270   -1.1019803428   -0.7620327375
H     -4.9205174292    0.2898669429   -0.4416701160
H     -4.1155071910   -0.5144604493    0.9337121926
H     -2.8030961499    1.6086718751    0.4213752120
H     -2.5282398329    1.0114462741   -1.3016091217
C      0.0619960013   -0.4972590327    0.5765411845
C      1.1804201228    0.4084021618    0.4917755986
C      2.2614300947    0.2250449588   -0.3264766453
H      0.1617367088   -1.4008717680   -0.0574243152
H     -0.3740444876   -0.6809325203    1.5653216230
H      1.1895229213    1.2960298985    1.1573107795
H      2.3353854596   -0.6625160939   -0.9885197885
H      3.0986851244    0.9480473440   -0.3428042684
