27
charge=0 spin=0 Ligand placed alongz−axis
Ru     0.0000    1.9888    1.0728
N     -1.3313    0.3006    1.0728
C     -2.6704    0.3806    1.0728
C     -3.4913   -0.7429    1.0728
C     -2.8956   -2.0018    1.0728
C     -1.5069   -2.0889    1.0728
C     -0.7394   -0.9193    1.0728
N      1.3313    0.3006    1.0728
C      2.6704    0.3806    1.0728
C      3.4913   -0.7429    1.0728
C      2.8956   -2.0018    1.0728
C      1.5069   -2.0889    1.0728
C      0.7394   -0.9193    1.0728
H     -3.0914    1.3785    1.0728
H     -4.5692   -0.6221    1.0728
H     -3.4993   -2.9044    1.0728
H     -1.0288   -3.0610    1.0728
H      1.0288   -3.0610    1.0728
H      3.4993   -2.9044    1.0728
H      4.5692   -0.6221    1.0728
H      3.0914    1.3785    1.0728
C      1.3191    3.3233    1.0728
C     -1.3191    3.3233    1.0728
O      2.1524    4.1192    1.0728
O     -2.1524    4.1192    1.0728
Cl     0.0000    1.8437   -1.3536
Cl     0.0000    1.8437    3.4992