15

C     -3.3303928141   -0.2696780680   -0.0467510364
C     -2.0353540345    0.5459309616   -0.1070423419
H     -3.2777954350   -1.1731531071   -0.6893262521
H     -4.2128281118    0.3278911418   -0.4039961801
H     -3.5668687068   -0.5957447547    0.9884628418
H     -2.1197883118    1.4534095052    0.5315444916
H     -1.8275748998    0.8775846749   -1.1445976661
C     -0.6373166052   -0.2809415901    0.4037069837
C      0.6276678969    0.5188176159    0.3926408129
C      1.7243298880    0.2312213915   -0.3390770169
H     -0.5163565064   -1.1927001814   -0.2239022402
H     -0.8985979968   -0.5957610134    1.4381120870
H      0.6518142556    1.4147268333    1.0436848736
H      1.7607975878   -0.6596671558   -0.9945889171
H      2.6272354554    0.8693883478   -0.3080773442
