99
charge=+2, spin=0
C  -5.813102 3.731623 -0.007491
C  -4.505283 3.313187  0.006487
C  -4.235573 1.938416  0.030146
C  -5.329637 1.048678  0.037903
C  -6.841183 2.790822  0.004331
C  -5.141368 -0.370718 0.062995
C  -3.856622 -0.940941 0.082280
C  -3.750770 -2.335734 0.105472
H  -2.772898 -2.800372 0.120643
C  -4.901880 -3.085348 0.107841
C  -6.141632 -2.447570 0.085861
H  -6.063237  4.784014 -0.026498
H  -3.698963  4.036139 -0.000813
H  -7.876547  3.103703 -0.001140
H  -4.868435 -4.166711  0.125790
H  -7.057734 -3.022921  0.083177
N  -6.268358 -1.127102  0.061298
N  -6.614130  1.483597  0.029337
Ru -8.017376 -0.030773  0.041759
N  -9.284988 -1.645118  0.223198
C  -9.856524 -2.310119 -0.786991
C  -9.560816 -2.040621  1.484056
C  -10.707233 -3.376379 -0.595833
H  -9.611597  -1.970394 -1.784184
C  -10.410350 -3.107974  1.738255
C  -11.006456 -3.802699  0.696016
H  -11.133883 -3.871853 -1.459339
H  -10.612661 -3.404828  2.758533
N  -8.117622  -0.254818  2.089147
C  -8.894218  -1.264958  2.534503
C  -7.477194   0.495726  2.992565
C  -9.036910  -1.524628  3.890353
C  -7.580261   0.285392  4.349734
H  -6.864910   1.297578  2.602550
C  -8.378351  -0.749030  4.833132
H  -9.667268  -2.339564  4.219986
H  -7.035428   0.932174  5.026533
N  -9.664030   1.194200 -0.144275
C  -10.394136  1.683758  0.864018
C  -10.032122  1.501882 -1.406080
C  -11.497522  2.485037  0.670142
H  -10.070225  1.421563  1.862141
C  -11.135460  2.303346 -1.663093
C  -11.897570  2.814522 -0.622721
H  -12.042264  2.849839  1.532303
H  -11.408134  2.533793 -2.684193
N  -8.166370   0.161028 -2.006464
C  -9.179858   0.932040 -2.454260
C  -7.347370  -0.392464 -2.907855
C  -9.379406   1.149149 -3.810360
C  -7.496157  -0.212909 -4.265267
H  -6.548034  -1.007013 -2.516267
C  -8.535583   0.577060 -4.750986
H  -10.200183  1.770635 -4.142230
H  -6.798044  -0.692621 -4.940268
C  -13.094933  3.669710 -0.870648
C  -8.513264  -1.006203  6.296744
H  -14.003380  3.149533 -0.555098
H  -13.194539  3.924072 -1.925259
H  -13.036202  4.593088 -0.290423
H  -7.539497  -1.239907  6.734417
H  -9.190786  -1.835370  6.497204
H  -8.889397  -0.117110  6.808556
C  -8.725439   0.797025 -6.214541
H  -9.615812   1.390849 -6.418038
H  -7.860302   1.314500 -6.636988
H  -8.814724  -0.157750 -6.737925
C  -2.751507  -0.039495  0.076039
C  -2.951752   1.333451  0.050143
N  -1.423189  -0.331545  0.094398
N  -1.699316   1.873003  0.052833
C  -0.810549   0.838347  0.080814
C   0.615613   1.012340  0.093889
C  -11.930470 -4.948222  0.941647
H  -11.971848 -5.209888  1.998362
H  -11.614470 -5.826634  0.374674
H  -12.941351 -4.697991  0.608925
C    1.358086  2.168001  0.120119
C    2.741257  1.928460  0.132381
C    3.060940  0.588514  0.115597
C    4.364163 -0.022238  0.123080
C    4.694728 -1.349476  0.262599
C    6.079761 -1.585540  0.231886
C    6.824703 -0.441623  0.067798
C    8.258065 -0.296265 -0.004148
C    9.011155  0.851981  0.058092
C   10.399417  0.612999 -0.045850
C   10.694283 -0.711695 -0.185746
S    1.632872 -0.375372  0.077817
S    5.790692  0.931986 -0.062228
S    9.283167 -1.670238 -0.198885
H    0.930423  3.161890  0.137951
H    3.484014  2.715104  0.163629
H    3.958362 -2.131474  0.399072
H    6.522257 -2.567260  0.343063
H    11.663321 -1.177667 -0.282237
H    11.150854  1.390728 -0.013627
H     8.578380  1.836160  0.187527
H    -1.466427  2.852141  0.034961