[Molden Format]
[N_Atoms]
                    6
[Atoms] (AU)
C1          1      6           0.00000000      0.00000000      1.26517164
C2          2      6           0.00000000      0.00000000     -1.26517164
H3          3      1           0.00000000      1.74535105      2.32833156
H4          4      1           0.00000000     -1.74535105      2.32833156
H5          5      1           0.00000000      1.74535105     -2.32833156
H6          6      1           0.00000000     -1.74535105     -2.32833156
[5D]
[Charge] (Mulliken)
  -6.4820979405034507E-002
  -6.4856459124891686E-002
   3.2419972683514597E-002
   3.2423713399764575E-002
   3.2418330615361812E-002
   3.2415421831161750E-002
[GTO] (AU)
   1
   s   5
  1.238401694E+03  5.517365048E-03
  1.862900499E+02  4.108882856E-02
  4.225117635E+01  1.822538213E-01
  1.167655793E+01  4.682845944E-01
  3.593050648E+00  4.457581734E-01
   s   1
  4.024514736E-01  1.000000000E+00
   s   1
  1.309018267E-01  1.000000000E+00
   p   3
  9.468097062E+00  5.688833201E-02
  2.010354514E+00  3.129405934E-01
  5.477100471E-01  7.606501651E-01
   p   1
  1.526861379E-01  1.000000000E+00
   d   1
  8.000000000E-01  1.000000000E+00
 
   2
   s   5
  1.238401694E+03  5.517365048E-03
  1.862900499E+02  4.108882856E-02
  4.225117635E+01  1.822538213E-01
  1.167655793E+01  4.682845944E-01
  3.593050648E+00  4.457581734E-01
   s   1
  4.024514736E-01  1.000000000E+00
   s   1
  1.309018267E-01  1.000000000E+00
   p   3
  9.468097062E+00  5.688833201E-02
  2.010354514E+00  3.129405934E-01
  5.477100471E-01  7.606501651E-01
   p   1
  1.526861379E-01  1.000000000E+00
   d   1
  8.000000000E-01  1.000000000E+00
 
   3
   s   3
  1.301070100E+01  3.348548481E-02
  1.962257200E+00  2.347218709E-01
  4.445379600E-01  8.137702853E-01
   s   1
  1.219496200E-01  1.000000000E+00
   p   1
  8.000000000E-01  1.000000000E+00
 
   4
   s   3
  1.301070100E+01  3.348548481E-02
  1.962257200E+00  2.347218709E-01
  4.445379600E-01  8.137702853E-01
   s   1
  1.219496200E-01  1.000000000E+00
   p   1
  8.000000000E-01  1.000000000E+00
 
   5
   s   3
  1.301070100E+01  3.348548481E-02
  1.962257200E+00  2.347218709E-01
  4.445379600E-01  8.137702853E-01
   s   1
  1.219496200E-01  1.000000000E+00
   p   1
  8.000000000E-01  1.000000000E+00
 
   6
   s   3
  1.301070100E+01  3.348548481E-02
  1.962257200E+00  2.347218709E-01
  4.445379600E-01  8.137702853E-01
   s   1
  1.219496200E-01  1.000000000E+00
   p   1
  8.000000000E-01  1.000000000E+00
 
[MO]
Sym=     1a  
Ene=     0.0000
Spin= Alpha
Occup=    0.00000
   1         0.70224053
   2         0.02320440
   3        -0.01152987
   4        -0.00000000
   5         0.00000001
   6         0.00126061
   7         0.00000000
   8        -0.00000014
   9        -0.00060604
  10         0.00043592
  11        -0.00000000
  12        -0.00000000
  13        -0.00065750
  14         0.00000000
  15         0.69913645
  16         0.02309162
  17        -0.01142915
  18         0.00000000
  19        -0.00000000
  20        -0.00126223
  21        -0.00000000
  22         0.00000013
  23         0.00061576
  24         0.00043423
  25         0.00000000
  26        -0.00000000
  27        -0.00065208
  28        -0.00000000
  29        -0.00149061
  30         0.00339434
  31        -0.00000000
  32         0.00073216
  33         0.00008333
  34        -0.00149064
  35         0.00339417
  36        -0.00000000
  37        -0.00073216
  38         0.00008334
  39        -0.00148356
  40         0.00337636
  41         0.00000000
  42         0.00072888
  43        -0.00008039
  44        -0.00148353
  45         0.00337651
  46         0.00000000
  47        -0.00072887
  48        -0.00008039
Sym=     2a  
Ene=     0.0000
Spin= Alpha
Occup=    0.00000
   1        -0.69899396
   2        -0.02734669
   3         0.02333980
   4         0.00000000
   5        -0.00000001
   6         0.00060732
   7         0.00000000
   8         0.00000008
   9        -0.00189875
  10        -0.00089004
  11        -0.00000000
  12         0.00000002
  13         0.00143661
  14         0.00000000
  15         0.70209567
  16         0.02745490
  17        -0.02339298
  18         0.00000000
  19        -0.00000000
  20         0.00060059
  21         0.00000000
  22         0.00000010
  23        -0.00189643
  24         0.00089211
  25         0.00000000
  26        -0.00000001
  27        -0.00144017
  28         0.00000000
  29         0.00191905
  30        -0.00424189
  31         0.00000000
  32        -0.00103738
  33        -0.00081808
  34         0.00191908
  35        -0.00424173
  36         0.00000000
  37         0.00103739
  38        -0.00081810
  39        -0.00192688
  40         0.00425721
  41         0.00000000
  42         0.00104176
  43        -0.00081892
  44        -0.00192684
  45         0.00425739
  46         0.00000000
  47        -0.00104174
  48        -0.00081890
Sym=     3a  
Ene=     0.0000
Spin= Alpha
Occup=    0.00000
   1        -0.19985789
   2         0.37945630
   3         0.11854455
   4         0.00000000
   5         0.00000033
   6        -0.11686193
   7         0.00000000
   8        -0.00000313
   9        -0.02153512
  10         0.01705251
  11        -0.00000000
  12        -0.00000033
  13        -0.00152936
  14        -0.00000000
  15        -0.19988292
  16         0.37954665
  17         0.11843605
  18         0.00000000
  19         0.00000027
  20         0.11685542
  21         0.00000000
  22        -0.00000433
  23         0.02151852
  24         0.01705156
  25         0.00000000
  26         0.00000030
  27        -0.00153051
  28        -0.00000000
  29         0.10894786
  30         0.00981578
  31         0.00000000
  32        -0.01366067
  33        -0.00957222
  34         0.10894704
  35         0.00980923
  36         0.00000000
  37         0.01366027
  38        -0.00957167
  39         0.10895100
  40         0.00983831
  41         0.00000000
  42        -0.01365675
  43         0.00956910
  44         0.10895009
  45         0.00983015
  46         0.00000000
  47         0.01365636
  48         0.00956853
Sym=     4a  
Ene=     0.0000
Spin= Alpha
Occup=    0.00000
   1         0.15273062
   2        -0.30311557
   3        -0.11122019
   4         0.00000000
   5        -0.00000001
   6        -0.15976382
   7         0.00000000
   8        -0.00000474
   9        -0.06492111
  10         0.00705295
  11        -0.00000000
  12        -0.00000027
  13         0.00950644
  14         0.00000000
  15        -0.15272514
  16         0.30313409
  17         0.11117174
  18         0.00000000
  19         0.00000016
  20        -0.15975103
  21         0.00000000
  22        -0.00000175
  23        -0.06491851
  24        -0.00705744
  25         0.00000000
  26         0.00000023
  27        -0.00950769
  28        -0.00000000
  29        -0.19546182
  30        -0.03842608
  31         0.00000000
  32         0.01779030
  33         0.00729371
  34        -0.19546238
  35        -0.03843429
  36         0.00000000
  37        -0.01779068
  38         0.00729414
  39         0.19543685
  40         0.03843768
  41         0.00000000
  42        -0.01778459
  43         0.00729168
  44         0.19543636
  45         0.03843353
  46         0.00000000
  47         0.01778433
  48         0.00729128
Sym=     5a  
Ene=     0.0000
Spin= Alpha
Occup=    0.00000
   1         0.00000023
   2        -0.00000089
   3         0.00000031
   4        -0.00000000
   5         0.31377725
   6         0.00000312
   7        -0.00000000
   8         0.11987820
   9         0.00000204
  10        -0.00000020
  11         0.00000000
  12         0.00341217
  13        -0.00000025
  14         0.00000000
  15         0.00000005
  16         0.00000169
  17        -0.00001372
  18        -0.00000000
  19         0.31372984
  20        -0.00000340
  21        -0.00000000
  22         0.11984208
  23         0.00000470
  24        -0.00000015
  25        -0.00000000
  26        -0.00340815
  27         0.00000018
  28         0.00000000
  29         0.20904820
  30         0.05681202
  31         0.00000000
  32        -0.00956159
  33        -0.00958401
  34        -0.20904564
  35        -0.05681279
  36        -0.00000000
  37        -0.00956162
  38         0.00958398
  39         0.20901423
  40         0.05682532
  41         0.00000000
  42        -0.00956060
  43         0.00958264
  44        -0.20901044
  45        -0.05680703
  46        -0.00000000
  47        -0.00955930
  48        -0.00958254
Sym=     6a  
Ene=     0.0000
Spin= Alpha
Occup=    0.00000
   1         0.01349216
   2        -0.03672263
   3         0.02283872
   4        -0.00000000
   5        -0.00000378
   6         0.40722164
   7        -0.00000000
   8         0.00000014
   9         0.14466205
  10        -0.01649631
  11         0.00000000
  12         0.00000052
  13        -0.01155438
  14        -0.00000000
  15         0.01348527
  16        -0.03672730
  17         0.02296617
  18        -0.00000000
  19        -0.00000266
  20        -0.40722728
  21        -0.00000000
  22         0.00001964
  23        -0.14465154
  24        -0.01649773
  25        -0.00000000
  26        -0.00000088
  27        -0.01155839
  28        -0.00000000
  29         0.16917025
  30         0.05783956
  31        -0.00000000
  32        -0.01173008
  33         0.00144361
  34         0.16917601
  35         0.05785029
  36        -0.00000000
  37         0.01173100
  38         0.00144263
  39         0.16918421
  40         0.05780082
  41        -0.00000000
  42        -0.01172983
  43        -0.00144309
  44         0.16918987
  45         0.05783709
  46        -0.00000000
  47         0.01173125
  48        -0.00144129
Sym=     7a  
Ene=     0.0000
Spin= Alpha
Occup=    0.00000
   1        -0.00000013
   2        -0.00000131
   3         0.00001184
   4        -0.00000000
   5        -0.29928196
   6        -0.00000069
   7        -0.00000000
   8        -0.12911571
   9         0.00000541
  10         0.00000010
  11         0.00000000
  12        -0.02895659
  13        -0.00000020
  14         0.00000000
  15        -0.00000006
  16        -0.00000013
  17         0.00000534
  18        -0.00000000
  19         0.29932067
  20         0.00000116
  21        -0.00000000
  22         0.12913307
  23        -0.00000013
  24         0.00000002
  25         0.00000000
  26        -0.02895806
  27        -0.00000008
  28         0.00000000
  29        -0.25990087
  30        -0.12004733
  31        -0.00000000
  32         0.00878207
  33         0.00922115
  34         0.25989946
  35         0.12003148
  36         0.00000000
  37         0.00878119
  38        -0.00922112
  39         0.25992702
  40         0.12005116
  41         0.00000000
  42        -0.00878169
  43         0.00922226
  44        -0.25992775
  45        -0.12005589
  46        -0.00000000
  47        -0.00878203
  48        -0.00922220
Sym=     8a  
Ene=     0.0000
Spin= Alpha
Occup=    0.00000
   1        -0.00000000
   2         0.00000000
   3         0.00000000
   4         0.38345840
   5        -0.00000000
   6         0.00000000
   7         0.29782468
   8        -0.00000000
   9         0.00000000
  10        -0.00000000
  11        -0.02776477
  12        -0.00000000
  13        -0.00000000
  14         0.00000004
  15         0.00000000
  16        -0.00000000
  17        -0.00000000
  18         0.38346828
  19         0.00000000
  20        -0.00000000
  21         0.29787896
  22         0.00000000
  23         0.00000000
  24        -0.00000000
  25         0.02776999
  26        -0.00000000
  27         0.00000000
  28         0.00000010
  29         0.00000000
  30         0.00000000
  31         0.01058632
  32        -0.00000000
  33        -0.00000000
  34         0.00000000
  35         0.00000000
  36         0.01058627
  37         0.00000000
  38        -0.00000000
  39        -0.00000000
  40        -0.00000000
  41         0.01058243
  42         0.00000000
  43        -0.00000000
  44        -0.00000000
  45        -0.00000000
  46         0.01058264
  47        -0.00000000
  48        -0.00000000
Sym=     9a  
Ene=     0.0000
Spin= Alpha
Occup=    0.00000
   1        -0.00000000
   2        -0.00000000
   3         0.00000000
   4        -0.34568698
   5         0.00000000
   6         0.00000000
   7        -0.75366607
   8         0.00000000
   9         0.00000000
  10        -0.00000000
  11        -0.02164939
  12        -0.00000000
  13         0.00000000
  14         0.00000024
  15        -0.00000000
  16         0.00000000
  17         0.00000000
  18         0.34565186
  19        -0.00000000
  20        -0.00000000
  21         0.75366821
  22        -0.00000000
  23        -0.00000000
  24        -0.00000000
  25        -0.02165414
  26         0.00000000
  27         0.00000000
  28        -0.00000005
  29        -0.00000000
  30        -0.00000000
  31        -0.01764399
  32        -0.00000000
  33         0.00000000
  34        -0.00000000
  35        -0.00000000
  36        -0.01764463
  37         0.00000000
  38         0.00000000
  39        -0.00000000
  40        -0.00000000
  41         0.01764054
  42         0.00000000
  43        -0.00000000
  44        -0.00000000
  45        -0.00000000
  46         0.01763951
  47        -0.00000000
  48        -0.00000000
Sym=    10a  
Ene=     0.0000
Spin= Alpha
Occup=    0.00000
   1         0.07302030
   2        -0.11769183
   3        -1.60301608
   4        -0.00000000
   5        -0.00002408
   6        -0.12971708
   7        -0.00000000
   8        -0.00071105
   9        -0.56202647
  10        -0.00528762
  11        -0.00000000
  12        -0.00001169
  13         0.00080578
  14         0.00000000
  15         0.07302678
  16        -0.11773604
  17        -1.60312043
  18         0.00000000
  19         0.00007827
  20         0.12969549
  21         0.00000000
  22         0.00094156
  23         0.56180344
  24        -0.00528608
  25        -0.00000000
  26        -0.00001006
  27         0.00080851
  28         0.00000000
  29         0.00310792
  30         1.12573630
  31        -0.00000000
  32        -0.00193780
  33        -0.00499707
  34         0.00310150
  35         1.12457658
  36        -0.00000000
  37         0.00192310
  38        -0.00497525
  39         0.00310200
  40         1.12412198
  41         0.00000000
  42        -0.00192463
  43         0.00497898
  44         0.00312372
  45         1.12596901
  46         0.00000000
  47         0.00194449
  48         0.00500493
Sym=    11a  
Ene=     0.0000
Spin= Alpha
Occup=    0.00000
   1        -0.00044433
   2         0.00051921
   3         0.01115260
   4         0.00000000
   5         0.21750303
   6         0.00040801
   7         0.00000000
   8         0.76748995
   9         0.00125770
  10        -0.00001804
  11        -0.00000000
  12        -0.01088409
  13        -0.00004449
  14        -0.00000000
  15         0.00042020
  16        -0.00046631
  17        -0.01073101
  18        -0.00000000
  19         0.21746486
  20         0.00037739
  21         0.00000000
  22         0.76704741
  23         0.00110248
  24         0.00002106
  25         0.00000000
  26         0.01088806
  27         0.00004397
  28         0.00000000
  29        -0.02504401
  30        -1.17812488
  31         0.00000000
  32         0.00546266
  33         0.00267343
  34         0.02501762
  35         1.16542910
  36        -0.00000000
  37         0.00538521
  38        -0.00267268
  39        -0.02501710
  40        -1.16530537
  41        -0.00000000
  42         0.00538514
  43        -0.00267211
  44         0.02503912
  45         1.17738534
  46         0.00000000
  47         0.00546494
  48         0.00267275
Sym=    12a  
Ene=     0.0000
Spin= Alpha
Occup=    0.00000
   1        -0.09281358
   2         0.11880717
   3         2.28708792
   4        -0.00000000
   5        -0.00109124
   6         0.08334444
   7        -0.00000000
   8        -0.00363277
   9         0.19874830
  10        -0.00408732
  11        -0.00000000
  12         0.00006368
  13        -0.00799600
  14         0.00000000
  15         0.09282768
  16        -0.11889462
  17        -2.28708593
  18        -0.00000000
  19        -0.00108237
  20         0.08334747
  21         0.00000000
  22        -0.00351025
  23         0.19880101
  24         0.00408929
  25         0.00000000
  26        -0.00006449
  27         0.00800041
  28        -0.00000000
  29        -0.00010208
  30        -1.26585761
  31         0.00000000
  32         0.00598799
  33        -0.00020788
  34        -0.00030742
  35        -1.27708168
  36         0.00000000
  37        -0.00602435
  38        -0.00019753
  39         0.00031858
  40         1.27700167
  41         0.00000000
  42        -0.00603177
  43        -0.00019411
  44         0.00011586
  45         1.26600969
  46         0.00000000
  47         0.00599688
  48        -0.00020171
Sym=    13a  
Ene=     0.0000
Spin= Alpha
Occup=    0.00000
   1        -0.00003903
   2         0.00012739
   3         0.00036681
   4        -0.00000000
   5        -0.19284372
   6         0.00006556
   7        -0.00000000
   8        -1.60774577
   9         0.00017219
  10         0.00000308
  11        -0.00000000
  12        -0.02053426
  13         0.00000450
  14         0.00000000
  15        -0.00004564
  16         0.00013968
  17         0.00052978
  18         0.00000000
  19         0.19291571
  20        -0.00007320
  21         0.00000000
  22         1.60792434
  23        -0.00015520
  24         0.00000311
  25        -0.00000000
  26        -0.02053562
  27         0.00000432
  28         0.00000000
  29        -0.02636472
  30         1.66038317
  31         0.00000000
  32        -0.00935371
  33        -0.01351352
  34         0.02637908
  35        -1.66107633
  36        -0.00000000
  37        -0.00933646
  38         0.01351725
  39         0.02638597
  40        -1.66144463
  41         0.00000000
  42         0.00934418
  43        -0.01352093
  44        -0.02636943
  45         1.66060669
  46        -0.00000000
  47         0.00936332
  48         0.01351747
Sym=    14a  
Ene=     0.0000
Spin= Alpha
Occup=    0.00000
   1         0.05758616
   2        -0.08086142
   3        -5.11519733
   4         0.00000000
   5        -0.00003977
   6         0.15471973
   7         0.00000000
   8         0.00003085
   9         3.49395078
  10         0.01729518
  11        -0.00000000
  12         0.00000517
  13         0.01563562
  14        -0.00000000
  15        -0.05759568
  16         0.08095907
  17         5.11492374
  18         0.00000000
  19        -0.00004255
  20         0.15472649
  21        -0.00000000
  22         0.00002779
  23         3.49399073
  24        -0.01729653
  25         0.00000000
  26        -0.00000474
  27        -0.01563256
  28        -0.00000000
  29        -0.11357291
  30        -0.24373334
  31        -0.00000000
  32        -0.00675420
  33         0.00466917
  34        -0.11353865
  35        -0.24378955
  36        -0.00000000
  37         0.00676296
  38         0.00466350
  39         0.11352404
  40         0.24393383
  41        -0.00000000
  42         0.00676196
  43         0.00466314
  44         0.11356124
  45         0.24386297
  46        -0.00000000
  47        -0.00675318
  48         0.00466887
Sym=    15a  
Ene=     0.0000
Spin= Alpha
Occup=    0.00000
   1        -0.09030861
   2         0.77496782
   3        -0.64382279
   4         0.00000000
   5         0.00000422
   6        -0.38668191
   7         0.00000000
   8         0.00000095
   9         0.77461162
  10         0.04911100
  11        -0.00000000
  12         0.00000011
  13        -0.00612923
  14         0.00000000
  15        -0.09031138
  16         0.77503398
  17        -0.64453150
  18         0.00000000
  19        -0.00001316
  20         0.38669702
  21        -0.00000000
  22         0.00001146
  23        -0.77486417
  24         0.04912224
  25        -0.00000000
  26        -0.00000025
  27        -0.00613271
  28         0.00000000
  29        -0.06277141
  30         0.18227550
  31        -0.00000000
  32        -0.00256379
  33         0.03145269
  34        -0.06277009
  35         0.18229512
  36        -0.00000000
  37         0.00256332
  38         0.03145404
  39        -0.06278425
  40         0.18239211
  41         0.00000000
  42        -0.00256208
  43        -0.03144982
  44        -0.06277184
  45         0.18236586
  46         0.00000000
  47         0.00256456
  48        -0.03144774
Sym=    16a  
Ene=     0.0000
Spin= Alpha
Occup=    0.00000
   1        -0.08316559
   2         0.70025237
   3        -1.84661245
   4        -0.00000000
   5         0.00003523
   6         0.12301248
   7         0.00000000
   8        -0.00005164
   9        -0.75582106
  10         0.00028378
  11        -0.00000000
  12         0.00000024
  13        -0.06603614
  14        -0.00000000
  15        -0.08317782
  16         0.70029474
  17        -1.84669194
  18         0.00000000
  19        -0.00004287
  20        -0.12300578
  21        -0.00000000
  22         0.00005191
  23         0.75577718
  24         0.00028504
  25        -0.00000000
  26        -0.00000175
  27        -0.06603955
  28         0.00000000
  29         0.46070639
  30         0.44708301
  31        -0.00000000
  32         0.01035026
  33        -0.01366018
  34         0.46067774
  35         0.44713620
  36        -0.00000000
  37        -0.01035694
  38        -0.01365266
  39         0.46059519
  40         0.44720084
  41         0.00000000
  42         0.01035190
  43         0.01365125
  44         0.46061431
  45         0.44714710
  46         0.00000000
  47        -0.01034355
  48         0.01366110
Sym=    17a  
Ene=     0.0000
Spin= Alpha
Occup=    0.00000
   1         0.00001094
   2        -0.00008307
   3         0.00045216
   4         0.00000000
   5        -0.06933589
   6        -0.00002520
   7        -0.00000000
   8         0.56080082
   9        -0.00016997
  10        -0.00000162
  11         0.00000000
  12        -0.10127128
  13        -0.00000380
  14        -0.00000000
  15        -0.00001060
  16         0.00007723
  17        -0.00045298
  18         0.00000000
  19        -0.06933578
  20        -0.00003011
  21        -0.00000000
  22         0.56074224
  23        -0.00015462
  24         0.00000133
  25        -0.00000000
  26         0.10128018
  27         0.00000293
  28         0.00000000
  29        -0.56303685
  30         0.11476102
  31         0.00000000
  32         0.00201788
  33        -0.05400880
  34         0.56302838
  35        -0.11478919
  36        -0.00000000
  37         0.00200480
  38         0.05401035
  39        -0.56299490
  40         0.11477776
  41        -0.00000000
  42         0.00200108
  43         0.05401101
  44         0.56300893
  45        -0.11475128
  46         0.00000000
  47         0.00201408
  48        -0.05400682
Sym=    18a  
Ene=     0.0000
Spin= Alpha
Occup=    0.00000
   1         0.00000000
   2        -0.00000000
   3         0.00000000
   4         0.70283521
   5        -0.00000000
   6        -0.00000000
   7        -0.61550564
   8        -0.00000000
   9        -0.00000000
  10         0.00000000
  11        -0.06317243
  12         0.00000000
  13         0.00000000
  14         0.00000000
  15        -0.00000000
  16         0.00000000
  17        -0.00000000
  18         0.70265728
  19        -0.00000000
  20        -0.00000000
  21        -0.61522799
  22         0.00000000
  23        -0.00000000
  24        -0.00000000
  25         0.06318061
  26        -0.00000000
  27         0.00000000
  28        -0.00000000
  29        -0.00000000
  30        -0.00000000
  31         0.01439046
  32         0.00000000
  33         0.00000000
  34        -0.00000000
  35        -0.00000000
  36         0.01439018
  37        -0.00000000
  38         0.00000000
  39         0.00000000
  40         0.00000000
  41         0.01438511
  42        -0.00000000
  43         0.00000000
  44         0.00000000
  45         0.00000000
  46         0.01438551
  47         0.00000000
  48         0.00000000
Sym=    19a  
Ene=     0.0000
Spin= Alpha
Occup=    0.00000
   1        -0.01129134
   2         0.60038028
   3        -4.42005505
   4         0.00000000
   5         0.00006757
   6         0.17675974
   7        -0.00000000
   8        -0.00008079
   9         0.77853882
  10         0.01505184
  11        -0.00000000
  12        -0.00002172
  13        -0.06898750
  14        -0.00000000
  15         0.01130464
  16        -0.60046526
  17         4.42027013
  18         0.00000000
  19         0.00007114
  20         0.17680547
  21        -0.00000000
  22        -0.00008824
  23         0.77843357
  24        -0.01505282
  25         0.00000000
  26         0.00002153
  27         0.06900484
  28        -0.00000000
  29         0.56536079
  30         0.37290068
  31         0.00000000
  32         0.03144138
  33        -0.00742672
  34         0.56543535
  35         0.37274078
  36         0.00000000
  37        -0.03146262
  38        -0.00740481
  39        -0.56544764
  40        -0.37281290
  41         0.00000000
  42        -0.03145785
  43        -0.00740744
  44        -0.56537505
  45        -0.37297475
  46         0.00000000
  47         0.03143613
  48        -0.00743001
Sym=    20a  
Ene=     0.0000
Spin= Alpha
Occup=    0.00000
   1         0.00000000
   2        -0.00000000
   3         0.00000000
   4         0.78069178
   5        -0.00000000
   6        -0.00000000
   7        -1.09068951
   8         0.00000000
   9         0.00000000
  10         0.00000000
  11         0.03025501
  12        -0.00000000
  13        -0.00000000
  14         0.00000080
  15         0.00000000
  16        -0.00000000
  17         0.00000000
  18        -0.78086230
  19         0.00000000
  20         0.00000000
  21         1.09083188
  22        -0.00000000
  23        -0.00000000
  24         0.00000000
  25         0.03023323
  26         0.00000000
  27        -0.00000000
  28         0.00000003
  29         0.00000000
  30        -0.00000000
  31         0.03183816
  32         0.00000000
  33         0.00000000
  34         0.00000000
  35        -0.00000000
  36         0.03183557
  37        -0.00000000
  38         0.00000000
  39         0.00000000
  40        -0.00000000
  41        -0.03183682
  42         0.00000000
  43        -0.00000000
  44         0.00000000
  45        -0.00000000
  46        -0.03183987
  47        -0.00000000
  48        -0.00000000
Sym=    21a  
Ene=     0.0000
Spin= Alpha
Occup=    0.00000
   1        -0.15172383
   2         0.81365279
   3        -1.68394734
   4         0.00000000
   5         0.00018932
   6         0.40611789
   7        -0.00000000
   8        -0.00068823
   9        -0.57845255
  10         0.01346199
  11         0.00000000
  12        -0.00000303
  13         0.10527915
  14        -0.00000000
  15        -0.15787787
  16         0.85084731
  17        -1.80141871
  18        -0.00000000
  19        -0.00033886
  20        -0.41060134
  21         0.00000000
  22         0.00094922
  23         0.57396678
  24         0.01297433
  25         0.00000000
  26        -0.00003478
  27         0.10757926
  28        -0.00000000
  29        -0.42056817
  30         0.90947239
  31         0.00000000
  32        -0.12149788
  33        -0.03101742
  34        -0.42058489
  35         0.90887215
  36         0.00000000
  37         0.12145233
  38        -0.03095189
  39        -0.42929277
  40         0.94236170
  41        -0.00000000
  42        -0.12428816
  43         0.03241078
  44        -0.42934904
  45         0.94340016
  46        -0.00000000
  47         0.12438001
  48         0.03250349
Sym=    22a  
Ene=     0.0000
Spin= Alpha
Occup=    0.00000
   1        -0.22275367
   2         1.34526323
   3        -4.22090723
   4         0.00000000
   5         0.00128949
   6         0.17072042
   7        -0.00000000
   8        -0.00227593
   9         0.13669440
  10        -0.01661553
  11        -0.00000000
  12        -0.00028462
  13         0.08404673
  14        -0.00000000
  15         0.21843117
  16        -1.32202389
  17         4.17227519
  18         0.00000000
  19         0.00129561
  20         0.15936321
  21        -0.00000000
  22        -0.00229830
  23         0.15276083
  24         0.01700328
  25         0.00000000
  26         0.00028409
  27        -0.08108478
  28         0.00000000
  29        -0.31927205
  30         1.22643632
  31         0.00000000
  32        -0.10502979
  33        -0.05346679
  34        -0.31860161
  35         1.22254659
  36         0.00000000
  37         0.10462267
  38        -0.05322576
  39         0.30680865
  40        -1.19674131
  41         0.00000000
  42         0.10119184
  43        -0.05233135
  44         0.30747361
  45        -1.20064576
  46         0.00000000
  47        -0.10159961
  48        -0.05257350
Sym=    23a  
Ene=     0.0000
Spin= Alpha
Occup=    0.00000
   1        -0.00041280
   2         0.00257020
   3        -0.00852210
   4         0.00000000
   5        -0.67590709
   6         0.00024913
   7        -0.00000000
   8         1.22603442
   9         0.00043166
  10        -0.00004139
  11        -0.00000000
  12         0.14254857
  13         0.00013306
  14         0.00000000
  15         0.00043896
  16        -0.00272125
  17         0.00884960
  18        -0.00000000
  19        -0.67580565
  20         0.00031721
  21         0.00000000
  22         1.22579645
  23         0.00033078
  24         0.00004014
  25         0.00000000
  26        -0.14254838
  27        -0.00015149
  28        -0.00000000
  29         0.16469246
  30        -1.04359320
  31        -0.00000000
  32         0.10672759
  33         0.05768893
  34        -0.16570574
  35         1.04828923
  36         0.00000000
  37         0.10707016
  38        -0.05790259
  39         0.16573782
  40        -1.04831356
  41         0.00000000
  42         0.10708334
  43        -0.05789511
  44        -0.16459315
  45         1.04327752
  46        -0.00000000
  47         0.10670243
  48         0.05767594
Sym=    24a  
Ene=     0.0000
Spin= Alpha
Occup=    0.00000
   1         0.00005332
   2        -0.00030783
   3         0.00066688
   4         0.00000000
   5         0.72269616
   6        -0.00014613
   7        -0.00000000
   8        -2.11010314
   9         0.00025994
  10        -0.00000640
  11         0.00000000
  12        -0.06512668
  13        -0.00003067
  14        -0.00000000
  15         0.00005855
  16        -0.00034159
  17         0.00081781
  18        -0.00000000
  19        -0.72277786
  20         0.00013762
  21         0.00000000
  22         2.11025974
  23        -0.00021926
  24        -0.00000371
  25         0.00000000
  26        -0.06515137
  27        -0.00003109
  28        -0.00000000
  29        -0.15006023
  30         1.26012976
  31         0.00000000
  32        -0.09569867
  33        -0.11594435
  34         0.15032886
  35        -1.26087495
  36        -0.00000000
  37        -0.09577466
  38         0.11597013
  39         0.15034951
  40        -1.26103588
  41         0.00000000
  42         0.09579511
  43        -0.11597840
  44        -0.15007651
  45         1.26024448
  46        -0.00000000
  47         0.09571928
  48         0.11594923
Sym=    25a  
Ene=     0.0000
Spin= Alpha
Occup=    0.00000
   1        -0.11492964
   2         0.64050894
   3        -4.45522252
   4         0.00000000
   5         0.00003316
   6        -0.81367473
   7        -0.00000000
   8        -0.00007387
   9         2.73875129
  10        -0.18053479
  11         0.00000000
  12        -0.00000429
  13        -0.03693279
  14         0.00000000
  15         0.11490849
  16        -0.64040669
  17         4.45499624
  18         0.00000000
  19         0.00004197
  20        -0.81371632
  21        -0.00000000
  22        -0.00007963
  23         2.73881508
  24         0.18056000
  25        -0.00000000
  26         0.00000612
  27         0.03695518
  28         0.00000000
  29         0.07846821
  30        -0.16536346
  31         0.00000000
  32         0.07262917
  33        -0.05770069
  34         0.07847342
  35        -0.16548421
  36         0.00000000
  37        -0.07264036
  38        -0.05770195
  39        -0.07852361
  40         0.16561391
  41         0.00000000
  42        -0.07266938
  43        -0.05768370
  44        -0.07849846
  45         0.16546375
  46         0.00000000
  47         0.07265567
  48        -0.05768697
Sym=    26a  
Ene=     0.0000
Spin= Alpha
Occup=    0.00000
   1         0.00000766
   2        -0.00005277
   3         0.00014472
   4        -0.00000000
   5         0.12792832
   6        -0.00001375
   7        -0.00000000
   8        -3.05575854
   9         0.00002650
  10         0.00000025
  11         0.00000000
  12         0.11674463
  13         0.00000088
  14         0.00000000
  15         0.00000780
  16        -0.00005582
  17         0.00013503
  18         0.00000000
  19        -0.12792747
  20         0.00002226
  21        -0.00000000
  22         3.05576017
  23        -0.00005280
  24        -0.00000141
  25        -0.00000000
  26         0.11676700
  27         0.00000034
  28         0.00000000
  29         0.78245522
  30         0.89995839
  31         0.00000000
  32        -0.04710063
  33         0.12481392
  34        -0.78242425
  35        -0.90009074
  36        -0.00000000
  37        -0.04710103
  38        -0.12480428
  39        -0.78242401
  40        -0.90010350
  41         0.00000000
  42         0.04710554
  43         0.12480912
  44         0.78245848
  45         0.89994686
  46        -0.00000000
  47         0.04710457
  48        -0.12481819
Sym=    27a  
Ene=     0.0000
Spin= Alpha
Occup=    0.00000
   1        -0.00000000
   2         0.00000000
   3        -0.00000000
   4        -0.00000223
   5        -0.00000000
   6         0.00000000
   7         0.00000227
   8         0.00000000
   9         0.00000000
  10         0.00000000
  11         0.00000125
  12        -0.00000000
  13        -0.00000000
  14         0.32980774
  15         0.00000000
  16        -0.00000000
  17         0.00000000
  18         0.00000263
  19        -0.00000000
  20        -0.00000000
  21        -0.00000298
  22        -0.00000000
  23         0.00000000
  24         0.00000000
  25        -0.00000066
  26        -0.00000000
  27        -0.00000000
  28         0.32981826
  29        -0.00000000
  30        -0.00000000
  31         0.35160132
  32         0.00000000
  33        -0.00000000
  34         0.00000000
  35         0.00000000
  36        -0.35159736
  37         0.00000000
  38         0.00000000
  39         0.00000000
  40         0.00000000
  41         0.35157394
  42        -0.00000000
  43        -0.00000000
  44        -0.00000000
  45        -0.00000000
  46        -0.35157482
  47        -0.00000000
  48         0.00000000
Sym=    28a  
Ene=     0.0000
Spin= Alpha
Occup=    0.00000
   1         0.00000000
   2        -0.00000000
   3        -0.00000000
   4        -0.00000026
   5        -0.00000000
   6         0.00000000
   7         0.00000153
   8         0.00000000
   9         0.00000000
  10         0.00000000
  11        -0.00000463
  12         0.00000000
  13        -0.00000000
  14        -0.25987599
  15         0.00000000
  16        -0.00000000
  17         0.00000000
  18        -0.00000067
  19        -0.00000000
  20         0.00000000
  21         0.00000132
  22        -0.00000000
  23         0.00000000
  24         0.00000000
  25         0.00000453
  26        -0.00000000
  27        -0.00000000
  28         0.25990734
  29        -0.00000000
  30        -0.00000000
  31        -0.39955127
  32        -0.00000000
  33         0.00000000
  34         0.00000000
  35         0.00000000
  36         0.39954301
  37        -0.00000000
  38        -0.00000000
  39        -0.00000000
  40         0.00000000
  41         0.39954452
  42        -0.00000000
  43        -0.00000000
  44         0.00000000
  45        -0.00000000
  46        -0.39955182
  47        -0.00000000
  48         0.00000000
Sym=    29a  
Ene=     0.0000
Spin= Alpha
Occup=    0.00000
   1         0.00000000
   2        -0.00000000
   3         0.00000000
   4         0.07592490
   5         0.00000000
   6         0.00000000
   7        -0.12880422
   8         0.00000000
   9        -0.00000000
  10         0.00000000
  11         0.42104940
  12        -0.00000000
  13        -0.00000000
  14        -0.00000440
  15        -0.00000000
  16         0.00000000
  17        -0.00000000
  18         0.07592867
  19        -0.00000000
  20         0.00000000
  21        -0.12882291
  22        -0.00000000
  23        -0.00000000
  24        -0.00000000
  25        -0.42109141
  26         0.00000000
  27        -0.00000000
  28         0.00000228
  29        -0.00000000
  30         0.00000000
  31         0.30470099
  32        -0.00000000
  33         0.00000000
  34        -0.00000000
  35         0.00000000
  36         0.30471132
  37         0.00000000
  38         0.00000000
  39         0.00000000
  40        -0.00000000
  41         0.30470679
  42         0.00000000
  43         0.00000000
  44         0.00000000
  45        -0.00000000
  46         0.30469910
  47        -0.00000000
  48         0.00000000
Sym=    30a  
Ene=     0.0000
Spin= Alpha
Occup=    0.00000
   1         0.00000266
   2        -0.00001939
   3         0.00000804
   4        -0.00000000
   5         0.07380533
   6         0.00000386
   7        -0.00000000
   8        -1.87051690
   9        -0.00002428
  10         0.00000707
  11         0.00000000
  12        -0.05142377
  13         0.00001371
  14        -0.00000000
  15         0.00000269
  16        -0.00002041
  17         0.00001655
  18         0.00000000
  19        -0.07374200
  20        -0.00000163
  21         0.00000000
  22         1.87029698
  23         0.00002563
  24         0.00000689
  25         0.00000000
  26        -0.05136303
  27         0.00001400
  28        -0.00000000
  29         0.46863700
  30         0.57827959
  31        -0.00000000
  32         0.35348131
  33        -0.34506329
  34        -0.46860694
  35        -0.57829841
  36         0.00000000
  37         0.35349171
  38         0.34510055
  39        -0.46852021
  40        -0.57822351
  41        -0.00000000
  42        -0.35333336
  43        -0.34498110
  44         0.46855228
  45         0.57819954
  46         0.00000000
  47        -0.35332116
  48         0.34494168
Sym=    31a  
Ene=     0.0000
Spin= Alpha
Occup=    0.00000
   1         0.00000269
   2        -0.00002331
   3         0.00003454
   4         0.00000000
   5         0.14561608
   6         0.00001687
   7         0.00000000
   8        -0.55157954
   9        -0.00016642
  10         0.00002919
  11         0.00000000
  12        -0.17106151
  13         0.00006068
  14        -0.00000000
  15         0.00000173
  16        -0.00000448
  17        -0.00021367
  18         0.00000000
  19         0.14564964
  20        -0.00004735
  21        -0.00000000
  22        -0.55243763
  23         0.00009409
  24         0.00002734
  25        -0.00000000
  26         0.17109257
  27         0.00004456
  28         0.00000000
  29         0.23403528
  30         0.18679163
  31        -0.00000000
  32         0.39231547
  33        -0.28658057
  34        -0.23393136
  35        -0.18678600
  36         0.00000000
  37         0.39234724
  38         0.28675067
  39         0.23422823
  40         0.18712166
  41         0.00000000
  42         0.39246440
  43         0.28674731
  44        -0.23416243
  45        -0.18701024
  46        -0.00000000
  47         0.39247126
  48        -0.28685790
Sym=    32a  
Ene=     0.0000
Spin= Alpha
Occup=    0.00000
   1         0.01457019
   2        -0.09841286
   3        -0.49810392
   4         0.00000000
   5        -0.00003846
   6         0.18329436
   7        -0.00000000
   8         0.00023430
   9        -0.75593486
  10         0.17137229
  11         0.00000000
  12         0.00003021
  13         0.29643478
  14        -0.00000000
  15         0.01457016
  16        -0.09840348
  17        -0.49824737
  18        -0.00000000
  19        -0.00001610
  20        -0.18329019
  21         0.00000000
  22        -0.00003626
  23         0.75587902
  24         0.17138001
  25         0.00000000
  26        -0.00002790
  27         0.29646249
  28        -0.00000000
  29         0.24550466
  30         0.16234890
  31         0.00000000
  32        -0.06168626
  33         0.40501837
  34         0.24563709
  35         0.16252217
  36         0.00000000
  37         0.06151526
  38         0.40489047
  39         0.24557911
  40         0.16245209
  41        -0.00000000
  42        -0.06164752
  43        -0.40497634
  44         0.24560682
  45         0.16242052
  46        -0.00000000
  47         0.06154518
  48        -0.40490613
Sym=    33a  
Ene=     0.0000
Spin= Alpha
Occup=    0.00000
   1        -0.00000000
   2         0.00000000
   3        -0.00000000
   4        -0.16453650
   5        -0.00000000
   6        -0.00000000
   7        -0.53297215
   8         0.00000000
   9         0.00000000
  10        -0.00000000
  11         0.15305385
  12        -0.00000000
  13         0.00000000
  14        -0.00000272
  15        -0.00000000
  16         0.00000000
  17         0.00000000
  18         0.16452454
  19         0.00000000
  20         0.00000000
  21         0.53295895
  22        -0.00000000
  23        -0.00000000
  24        -0.00000000
  25         0.15307508
  26         0.00000000
  27         0.00000000
  28        -0.00000319
  29        -0.00000000
  30        -0.00000000
  31         0.54005608
  32         0.00000000
  33        -0.00000000
  34        -0.00000000
  35        -0.00000000
  36         0.54005573
  37        -0.00000000
  38        -0.00000000
  39         0.00000000
  40        -0.00000000
  41        -0.54002713
  42         0.00000000
  43         0.00000000
  44         0.00000000
  45        -0.00000000
  46        -0.54002890
  47        -0.00000000
  48         0.00000000
Sym=    34a  
Ene=     0.0000
Spin= Alpha
Occup=    0.00000
   1         0.07865770
   2        -0.49318634
   3        -1.72335514
   4         0.00000000
   5         0.00001695
   6         0.18836299
   7         0.00000000
   8        -0.00002814
   9         1.51289095
  10        -0.05223642
  11         0.00000000
  12        -0.00001300
  13        -0.24720924
  14         0.00000000
  15        -0.07867505
  16         0.49335955
  17         1.72326739
  18        -0.00000000
  19         0.00001745
  20         0.18837732
  21        -0.00000000
  22        -0.00003229
  23         1.51279729
  24         0.05213181
  25        -0.00000000
  26         0.00001349
  27         0.24733991
  28         0.00000000
  29        -0.15214607
  30        -0.06802680
  31        -0.00000000
  32         0.04208857
  33        -0.48910737
  34        -0.15215954
  35        -0.06805606
  36        -0.00000000
  37        -0.04205803
  38        -0.48911356
  39         0.15218271
  40         0.06805123
  41         0.00000000
  42        -0.04197160
  43        -0.48908581
  44         0.15216728
  45         0.06801952
  46         0.00000000
  47         0.04200386
  48        -0.48908064
Sym=    35a  
Ene=     0.0000
Spin= Alpha
Occup=    0.00000
   1        -0.00000240
   2         0.00001573
   3         0.00002797
   4         0.00000000
   5         0.09490226
   6        -0.00000220
   7         0.00000000
   8         0.11921170
   9        -0.00003990
  10         0.00000282
  11         0.00000000
  12        -0.41427486
  13         0.00000438
  14         0.00000000
  15         0.00000308
  16        -0.00002203
  17        -0.00002218
  18         0.00000000
  19         0.09490993
  20        -0.00000202
  21         0.00000000
  22         0.11918188
  23        -0.00003841
  24         0.00000007
  25        -0.00000000
  26         0.41430877
  27        -0.00000822
  28         0.00000000
  29         0.13357783
  30        -0.23382230
  31        -0.00000000
  32         0.06432791
  33         0.40117651
  34        -0.13357312
  35         0.23383688
  36         0.00000000
  37         0.06432876
  38        -0.40115113
  39         0.13359191
  40        -0.23383529
  41         0.00000000
  42         0.06431884
  43        -0.40117035
  44        -0.13359727
  45         0.23381770
  46        -0.00000000
  47         0.06432281
  48         0.40119490
Sym=    36a  
Ene=     0.0000
Spin= Alpha
Occup=    0.00000
   1        -0.06752168
   2         0.60598661
   3        -0.28657676
   4         0.00000000
   5         0.00000013
   6        -0.03634473
   7         0.00000000
   8        -0.00000721
   9         0.29218939
  10        -0.36145116
  11        -0.00000000
  12        -0.00000153
  13         0.43889369
  14         0.00000000
  15        -0.06748924
  16         0.60582241
  17        -0.28732329
  18        -0.00000000
  19        -0.00000346
  20         0.03621640
  21        -0.00000000
  22         0.00001707
  23        -0.29277885
  24        -0.36150133
  25        -0.00000000
  26         0.00000166
  27         0.43884726
  28         0.00000000
  29         0.04958438
  30        -0.01891912
  31        -0.00000000
  32         0.26914246
  33        -0.07722448
  34         0.04958053
  35        -0.01892168
  36        -0.00000000
  37        -0.26914303
  38        -0.07722877
  39         0.04954321
  40        -0.01896602
  41         0.00000000
  42         0.26919222
  43         0.07737689
  44         0.04954576
  45        -0.01894710
  46         0.00000000
  47        -0.26919718
  48         0.07738246
Sym=    37a  
Ene=     0.0000
Spin= Alpha
Occup=    0.00000
   1         0.00000000
   2         0.00000000
   3        -0.00000000
   4        -0.21319764
   5         0.00000000
   6         0.00000000
   7        -0.13323787
   8         0.00000000
   9         0.00000000
  10        -0.00000000
  11        -0.49064002
  12        -0.00000000
  13         0.00000000
  14        -0.00000070
  15        -0.00000000
  16        -0.00000000
  17         0.00000000
  18        -0.21319836
  19         0.00000000
  20         0.00000000
  21        -0.13325399
  22        -0.00000000
  23         0.00000000
  24         0.00000000
  25         0.49070929
  26         0.00000000
  27        -0.00000000
  28         0.00000088
  29         0.00000000
  30        -0.00000000
  31         0.47041972
  32         0.00000000
  33        -0.00000000
  34         0.00000000
  35        -0.00000000
  36         0.47041992
  37        -0.00000000
  38        -0.00000000
  39        -0.00000000
  40         0.00000000
  41         0.47046617
  42        -0.00000000
  43        -0.00000000
  44        -0.00000000
  45         0.00000000
  46         0.47046641
  47         0.00000000
  48        -0.00000000
Sym=    38a  
Ene=     0.0000
Spin= Alpha
Occup=    0.00000
   1         0.00000000
   2         0.00000000
   3        -0.00000000
   4         0.00000004
   5        -0.00000000
   6         0.00000000
   7        -0.00000292
   8        -0.00000000
   9         0.00000000
  10        -0.00000000
  11         0.00000086
  12         0.00000000
  13         0.00000000
  14         0.66821792
  15        -0.00000000
  16         0.00000000
  17         0.00000000
  18        -0.00000002
  19         0.00000000
  20         0.00000000
  21         0.00000283
  22         0.00000000
  23         0.00000000
  24         0.00000000
  25         0.00000033
  26         0.00000000
  27        -0.00000000
  28         0.66834869
  29         0.00000000
  30         0.00000000
  31        -0.42158885
  32        -0.00000000
  33        -0.00000000
  34        -0.00000000
  35        -0.00000000
  36         0.42159244
  37        -0.00000000
  38         0.00000000
  39        -0.00000000
  40        -0.00000000
  41        -0.42167292
  42         0.00000000
  43        -0.00000000
  44         0.00000000
  45         0.00000000
  46         0.42166948
  47         0.00000000
  48         0.00000000
Sym=    39a  
Ene=     0.0000
Spin= Alpha
Occup=    0.00000
   1        -0.02610296
   2         0.36660440
   3        -2.99071495
   4         0.00000000
   5         0.00001112
   6         0.53788631
   7         0.00000000
   8        -0.00001056
   9         1.79963461
  10        -0.23550488
  11         0.00000000
  12         0.00000557
  13         0.35401825
  14        -0.00000000
  15         0.02609887
  16        -0.36657508
  17         2.99070960
  18         0.00000000
  19         0.00001324
  20         0.53787595
  21         0.00000000
  22        -0.00001768
  23         1.79962247
  24         0.23550813
  25        -0.00000000
  26        -0.00000489
  27        -0.35395716
  28        -0.00000000
  29        -0.06162971
  30        -0.15728287
  31        -0.00000000
  32         0.50855923
  33        -0.12830615
  34        -0.06162048
  35        -0.15730421
  36        -0.00000000
  37        -0.50854694
  38        -0.12830533
  39         0.06163218
  40         0.15729942
  41        -0.00000000
  42        -0.50851661
  43        -0.12828991
  44         0.06163989
  45         0.15727229
  46        -0.00000000
  47         0.50853129
  48        -0.12828947
Sym=    40a  
Ene=     0.0000
Spin= Alpha
Occup=    0.00000
   1         0.00000139
   2        -0.00000905
   3         0.00000959
   4        -0.00000000
   5        -0.77010755
   6        -0.00001104
   7         0.00000000
   8        -0.49861403
   9        -0.00000010
  10        -0.00001013
  11        -0.00000000
  12         0.15833933
  13         0.00000069
  14        -0.00000000
  15         0.00000141
  16        -0.00000886
  17         0.00000241
  18        -0.00000000
  19         0.77011464
  20         0.00000969
  21        -0.00000000
  22         0.49860288
  23        -0.00000591
  24        -0.00001102
  25        -0.00000000
  26         0.15831993
  27         0.00000129
  28        -0.00000000
  29         0.27133028
  30         0.40792503
  31         0.00000000
  32        -0.41252304
  33        -0.47164707
  34        -0.27131989
  35        -0.40793128
  36        -0.00000000
  37        -0.41250314
  38         0.47165036
  39        -0.27133126
  40        -0.40791459
  41         0.00000000
  42         0.41250535
  43        -0.47164105
  44         0.27134117
  45         0.40790584
  46        -0.00000000
  47         0.41252280
  48         0.47163877
Sym=    41a  
Ene=     0.0000
Spin= Alpha
Occup=    0.00000
   1         0.01643272
   2        -0.04137444
   3        -0.49884464
   4        -0.00000000
   5         0.00000806
   6        -0.34613070
   7        -0.00000000
   8         0.00004437
   9        -0.21086621
  10        -0.59406724
  11         0.00000000
  12        -0.00000611
  13        -0.09683848
  14         0.00000000
  15         0.01644184
  16        -0.04143429
  17        -0.49852606
  18         0.00000000
  19        -0.00001093
  20         0.34609392
  21         0.00000000
  22        -0.00004396
  23         0.21100929
  24        -0.59411718
  25         0.00000000
  26        -0.00000449
  27        -0.09688328
  28        -0.00000000
  29         0.11031845
  30         0.22742248
  31        -0.00000000
  32        -0.40799082
  33         0.26755120
  34         0.11033300
  35         0.22747374
  36        -0.00000000
  37         0.40800027
  38         0.26753331
  39         0.11032019
  40         0.22745993
  41         0.00000000
  42        -0.40801986
  43        -0.26756884
  44         0.11030299
  45         0.22740919
  46         0.00000000
  47         0.40800723
  48        -0.26758859
Sym=    42a  
Ene=     0.0000
Spin= Alpha
Occup=    0.00000
   1         0.00000000
   2        -0.00000000
   3        -0.00000000
   4         0.00000014
   5         0.00000000
   6        -0.00000000
   7        -0.00000073
   8         0.00000000
   9        -0.00000000
  10        -0.00000000
  11         0.00000117
  12         0.00000000
  13        -0.00000000
  14        -0.77293605
  15        -0.00000000
  16         0.00000000
  17        -0.00000000
  18        -0.00000007
  19         0.00000000
  20         0.00000000
  21         0.00000113
  22         0.00000000
  23         0.00000000
  24        -0.00000000
  25         0.00000073
  26        -0.00000000
  27        -0.00000000
  28         0.77280794
  29        -0.00000000
  30        -0.00000000
  31         0.38674010
  32         0.00000000
  33         0.00000000
  34         0.00000000
  35         0.00000000
  36        -0.38674097
  37         0.00000000
  38        -0.00000000
  39        -0.00000000
  40        -0.00000000
  41        -0.38667487
  42         0.00000000
  43        -0.00000000
  44         0.00000000
  45         0.00000000
  46         0.38667379
  47         0.00000000
  48         0.00000000
Sym=    43a  
Ene=     0.0000
Spin= Alpha
Occup=    0.00000
   1        -0.00000000
   2         0.00000000
   3         0.00000000
   4        -0.09794262
   5         0.00000000
   6         0.00000000
   7        -0.04904230
   8        -0.00000000
   9         0.00000000
  10         0.00000000
  11         0.90592809
  12         0.00000000
  13         0.00000000
  14         0.00000069
  15        -0.00000000
  16        -0.00000000
  17         0.00000000
  18         0.09796077
  19        -0.00000000
  20        -0.00000000
  21         0.04904788
  22         0.00000000
  23        -0.00000000
  24         0.00000000
  25         0.90586733
  26         0.00000000
  27         0.00000000
  28        -0.00000080
  29        -0.00000000
  30        -0.00000000
  31        -0.21194250
  32         0.00000000
  33        -0.00000000
  34        -0.00000000
  35        -0.00000000
  36        -0.21194184
  37        -0.00000000
  38        -0.00000000
  39        -0.00000000
  40        -0.00000000
  41         0.21191577
  42         0.00000000
  43         0.00000000
  44        -0.00000000
  45        -0.00000000
  46         0.21191497
  47        -0.00000000
  48         0.00000000
Sym=    44a  
Ene=     0.0000
Spin= Alpha
Occup=    0.00000
   1         0.15004116
   2        -0.98922311
   3        -0.42348586
   4         0.00000000
   5         0.00000307
   6        -0.51832658
   7        -0.00000000
   8         0.00003141
   9        -0.18284980
  10         0.18370113
  11        -0.00000000
  12        -0.00000209
  13         0.70277613
  14        -0.00000000
  15         0.15006090
  16        -0.98932710
  17        -0.42409031
  18        -0.00000000
  19         0.00000460
  20         0.51851157
  21         0.00000000
  22        -0.00003122
  23         0.18270816
  24         0.18381290
  25        -0.00000000
  26        -0.00000762
  27         0.70301669
  28         0.00000000
  29         0.64576595
  30         0.19693517
  31         0.00000000
  32        -0.58995771
  33        -0.47668195
  34         0.64577624
  35         0.19696961
  36         0.00000000
  37         0.58996188
  38        -0.47669013
  39         0.64595449
  40         0.19704630
  41        -0.00000000
  42        -0.59007463
  43         0.47683116
  44         0.64595459
  45         0.19701057
  46        -0.00000000
  47         0.59008013
  48         0.47682834
Sym=    45a  
Ene=     0.0000
Spin= Alpha
Occup=    0.00000
   1        -0.00010413
   2         0.00059146
   3         0.00059584
   4        -0.00000000
   5         0.93760784
   6        -0.00018271
   7         0.00000000
   8         0.46032086
   9        -0.00013861
  10         0.00049370
  11         0.00000000
  12         0.78223140
  13        -0.00019476
  14         0.00000000
  15         0.00010294
  16        -0.00058398
  17        -0.00059328
  18        -0.00000000
  19         0.93766465
  20        -0.00018563
  21         0.00000000
  22         0.46039631
  23        -0.00013851
  24        -0.00049667
  25        -0.00000000
  26        -0.78236923
  27         0.00019051
  28        -0.00000000
  29        -0.70571179
  30        -0.31599397
  31        -0.00000000
  32         0.63650125
  33         0.41774645
  34         0.70531792
  35         0.31580622
  36         0.00000000
  37         0.63602157
  38        -0.41767809
  39        -0.70541043
  40        -0.31582024
  41         0.00000000
  42         0.63608718
  43        -0.41769462
  44         0.70579618
  45         0.31600463
  46        -0.00000000
  47         0.63655937
  48         0.41775350
Sym=    46a  
Ene=     0.0000
Spin= Alpha
Occup=    0.00000
   1         0.18997659
   2        -1.07280756
   3        -1.07700561
   4         0.00000000
   5         0.00049337
   6         0.37249802
   7        -0.00000000
   8         0.00025507
   9         0.18727834
  10        -0.95342892
  11         0.00000000
  12         0.00041528
  13         0.32678657
  14         0.00000000
  15        -0.18996932
  16         1.07275694
  17         1.07699115
  18         0.00000000
  19         0.00049346
  20         0.37252832
  21        -0.00000000
  22         0.00026015
  23         0.18729036
  24         0.95340709
  25        -0.00000000
  26        -0.00041579
  27        -0.32675775
  28        -0.00000000
  29         0.34249858
  30         0.20700856
  31        -0.00000000
  32        -0.44109113
  33        -0.03286507
  34         0.34324728
  35         0.20736438
  36        -0.00000000
  37         0.44176413
  38        -0.03331117
  39        -0.34322186
  40        -0.20735662
  41        -0.00000000
  42         0.44173323
  43        -0.03330250
  44        -0.34247126
  45        -0.20699576
  46        -0.00000000
  47        -0.44105983
  48        -0.03285573
Sym=    47a  
Ene=     0.0000
Spin= Alpha
Occup=    0.00000
   1        -0.07716899
   2         0.42756793
   3         1.37190878
   4        -0.00000000
   5        -0.00001707
   6         0.73259351
   7         0.00000000
   8        -0.00002042
   9        -0.17183333
  10        -0.58001906
  11        -0.00000000
  12        -0.00001709
  13        -0.84106453
  14         0.00000000
  15         0.07712719
  16        -0.42729125
  17        -1.37182192
  18        -0.00000000
  19        -0.00001737
  20         0.73247398
  21         0.00000000
  22        -0.00002355
  23        -0.17188346
  24         0.57993385
  25        -0.00000000
  26         0.00001840
  27         0.84086822
  28        -0.00000000
  29        -0.63526736
  30        -0.25208810
  31        -0.00000000
  32         0.41413384
  33         0.51720917
  34        -0.63529838
  35        -0.25212125
  36        -0.00000000
  37        -0.41415997
  38         0.51723010
  39         0.63513244
  40         0.25207706
  41        -0.00000000
  42        -0.41402126
  43         0.51709988
  44         0.63509937
  45         0.25204105
  46        -0.00000000
  47         0.41399414
  48         0.51707860
Sym=    48a  
Ene=     0.0000
Spin= Alpha
Occup=    0.00000
   1         0.00000035
   2        -0.00000144
   3        -0.00001351
   4         0.00000000
   5         0.54016001
   6        -0.00000213
   7         0.00000000
   8         0.75223170
   9        -0.00000511
  10        -0.00000018
  11        -0.00000000
  12         1.23135351
  13         0.00000297
  14         0.00000000
  15         0.00000028
  16        -0.00000118
  17        -0.00001047
  18         0.00000000
  19        -0.54006302
  20         0.00000124
  21         0.00000000
  22        -0.75217286
  23         0.00000458
  24        -0.00000047
  25         0.00000000
  26         1.23125102
  27         0.00000199
  28         0.00000000
  29        -0.74739589
  30        -0.26420730
  31        -0.00000000
  32         0.57044509
  33         0.16793015
  34         0.74740137
  35         0.26422065
  36         0.00000000
  37         0.57045212
  38        -0.16793200
  39         0.74732227
  40         0.26417790
  41        -0.00000000
  42        -0.57038449
  43         0.16789130
  44        -0.74731848
  45        -0.26416680
  46         0.00000000
  47        -0.57037894
  48        -0.16789032
