15

C     -3.8707003880   -0.2118198862   -0.1095695807
C     -2.6969798185    0.7213540908   -0.2473567661
H     -3.7808917096   -1.1109580313   -0.7538234977
H     -4.8386804973    0.2949773995   -0.4375862356
H     -4.0522402899   -0.5244375636    0.9407635772
H     -2.7229007393    1.5905600872    0.4349988720
H     -2.4460145537    0.9956093923   -1.2839180715
C     -0.0232193312   -0.4717673968    0.5552033284
C      1.1145940582    0.4221811346    0.4793316235
C      2.1986949351    0.2259869222   -0.3280595939
H      0.0822114508   -1.3767149472   -0.0776979461
H     -0.4364146431   -0.6705009169    1.5522455602
H      1.1273861687    1.3099305773    1.1446604323
H      2.2688168056   -0.6624831014   -0.9896359099
H      3.0452959834    0.9394060061   -0.3387505712
