15

C     -4.0162530782   -0.1936708037   -0.1276490825
C     -2.8809161191    0.7679227794   -0.2848796212
H     -3.9122238467   -1.0928952091   -0.7701876286
H     -5.0021334339    0.2846435528   -0.4456910455
H     -4.1786000929   -0.5044080164    0.9265495991
H     -2.8833091399    1.6267646610    0.4076232357
H     -2.6104928044    1.0273158090   -1.3191771117
C      0.1474714424   -0.5227090599    0.5980266313
C      1.2464580549    0.3945151924    0.5043113969
C      2.3240880427    0.2240731475   -0.3248387366
H      0.2412624723   -1.4249832720   -0.0370190375
H     -0.3114776021   -0.6914619558    1.5780779157
H      1.2515089877    1.2821331143    1.1698447404
H      2.4018212489   -0.6624961390   -0.9873360184
H      3.1517493740    0.9565782998   -0.3468475764
