[Molden Format]
[N_Atoms]
                    3
[Atoms] (AU)
FE1         1     26           0.00000000      0.00000000      0.00000000
C2          2      6           0.00000000      0.00000000      3.30702072
O3          3      8           0.00000000      0.00000000      5.57469207
[5D]
[Charge] (Mulliken)
  -9.3910279561029242     
  -5.6758805260012757E-002
 -0.55221323863729666     
[GTO] (AU)
   1
   s   3
  6.422000000E+00 -3.927882259E-01
  1.826000000E+00  7.712643508E-01
  7.135000000E-01  4.920228324E-01
   s   4
  6.422000000E+00  1.786877071E-01
  1.826000000E+00 -4.194032166E-01
  7.135000000E-01 -4.568185181E-01
  1.021000000E-01  1.103504844E+00
   s   1
  3.630000000E-02  1.000000000E+00
   p   3
  1.948000000E+01 -4.702820002E-02
  2.389000000E+00  6.248841003E-01
  7.795000000E-01  4.722542002E-01
   p   1
  7.400000000E-02  1.000000000E+00
   p   1
  2.200000000E-02  1.000000000E+00
   d   4
  3.708000000E+01  3.290000268E-02
  1.010000000E+01  1.787418146E-01
  3.220000000E+00  4.487657366E-01
  9.628000000E-01  5.876361479E-01
   d   1
  2.262000000E-01  1.000000000E+00
 
   2
   s   7
  4.233000000E+03  1.219999687E-03
  6.349000000E+02  9.341997607E-03
  1.461000000E+02  4.545198836E-02
  4.250000000E+01  1.546569604E-01
  1.419000000E+01  3.588659081E-01
  5.148000000E+00  4.386318876E-01
  1.967000000E+00  1.459179626E-01
   s   2
  5.148000000E+00 -1.683669561E-01
  4.962000000E-01  1.060090723E+00
   s   1
  1.533000000E-01  1.000000000E+00
   p   4
  1.816000000E+01  1.853899981E-02
  3.986000000E+00  1.154359988E-01
  1.143000000E+00  3.861879960E-01
  3.594000000E-01  6.401139934E-01
   p   1
  1.146000000E-01  1.000000000E+00
 
   3
   s   7
  7.817000000E+03  1.176000331E-03
  1.176000000E+03  8.968002523E-03
  2.732000000E+02  4.286801206E-02
  8.117000000E+01  1.439300405E-01
  2.718000000E+01  3.556301000E-01
  9.532000000E+00  4.612481297E-01
  3.414000000E+00  1.402060394E-01
   s   2
  9.532000000E+00 -1.541530739E-01
  9.398000000E-01  1.056914507E+00
   s   1
  2.846000000E-01  1.000000000E+00
   p   4
  3.518000000E+01  1.958000050E-02
  7.904000000E+00  1.242000032E-01
  2.305000000E+00  3.947140101E-01
  7.171000000E-01  6.273760161E-01
   p   1
  2.137000000E-01  1.000000000E+00
 
[MO]
Sym=     1a  
Ene=     0.0000
Spin= Alpha
Occup=    0.00000
   1        -0.00038309
   2        -0.00047524
   3         0.00013902
   4         0.00000000
   5         0.00000000
   6        -0.00004808
   7         0.00000000
   8         0.00000000
   9        -0.00005707
  10         0.00000000
  11         0.00000000
  12         0.00002962
  13        -0.00002646
  14         0.00000000
  15         0.00000000
  16        -0.00000000
  17         0.00000000
  18         0.00010294
  19         0.00000000
  20         0.00000000
  21        -0.00000001
  22         0.00000000
  23        -0.00000811
  24        -0.00007455
  25        -0.00040484
  26         0.00000000
  27         0.00000000
  28        -0.00006153
  29         0.00000000
  30         0.00000000
  31        -0.00091222
  32         0.99974482
  33        -0.00052353
  34         0.00272043
  35         0.00000000
  36         0.00000000
  37        -0.00179668
  38         0.00000000
  39         0.00000000
  40         0.00035450
Sym=     2a  
Ene=     0.0000
Spin= Alpha
Occup=    0.00000
   1        -0.00015803
   2        -0.00000089
   3        -0.00008825
   4         0.00000000
   5         0.00000000
   6         0.00017276
   7         0.00000000
   8         0.00000000
   9         0.00040465
  10         0.00000000
  11         0.00000000
  12        -0.00010559
  13         0.00009404
  14         0.00000000
  15         0.00000000
  16        -0.00000001
  17         0.00000000
  18         0.00072998
  19         0.00000000
  20         0.00000000
  21        -0.00000002
  22         0.00000000
  23         0.99913780
  24         0.00326084
  25         0.00079915
  26         0.00000000
  27         0.00000000
  28         0.00285940
  29         0.00000000
  30         0.00000000
  31        -0.00117976
  32        -0.00043830
  33         0.00082543
  34        -0.00087721
  35         0.00000000
  36         0.00000000
  37        -0.00086587
  38         0.00000000
  39         0.00000000
  40         0.00130087
Sym=     3a  
Ene=     0.0000
Spin= Alpha
Occup=    0.00000
   1         1.00395996
   2         0.01337125
   3        -0.00450733
   4         0.00000000
   5         0.00000000
   6        -0.00277851
   7         0.00000000
   8         0.00000000
   9        -0.00050160
  10         0.00000000
  11         0.00000000
  12         0.00013986
  13         0.01491784
  14         0.00000000
  15         0.00000000
  16        -0.00000278
  17         0.00000000
  18        -0.00184377
  19         0.00000000
  20         0.00000000
  21         0.00000040
  22         0.00000000
  23        -0.00148134
  24         0.00293180
  25        -0.00025224
  26         0.00000000
  27         0.00000000
  28        -0.00368436
  29         0.00000000
  30         0.00000000
  31         0.00061539
  32         0.00002228
  33         0.00001761
  34         0.00065448
  35         0.00000000
  36         0.00000000
  37        -0.00016403
  38         0.00000000
  39         0.00000000
  40        -0.00016366
Sym=     4a  
Ene=     0.0000
Spin= Alpha
Occup=    0.00000
   1        -0.00756050
   2        -0.01185997
   3         0.00170990
   4         0.00000000
   5         0.00000000
   6         0.99306770
   7         0.00000000
   8         0.00000000
   9         0.00984782
  10         0.00000000
  11         0.00000000
  12        -0.00326347
  13        -0.00272194
  14         0.00000000
  15         0.00000000
  16         0.00000019
  17         0.00000000
  18        -0.00440266
  19         0.00000000
  20         0.00000000
  21        -0.00000038
  22         0.00000000
  23        -0.00698548
  24         0.01528429
  25         0.01249787
  26         0.00000000
  27         0.00000000
  28        -0.01981815
  29         0.00000000
  30         0.00000000
  31        -0.00806432
  32         0.00014548
  33         0.00041456
  34         0.00287611
  35         0.00000000
  36         0.00000000
  37        -0.00087302
  38         0.00000000
  39         0.00000000
  40         0.00200593
Sym=     5a  
Ene=     0.0000
Spin= Alpha
Occup=    0.00000
   1         0.00000000
   2         0.00000000
   3         0.00000000
   4         0.99648949
   5         0.00000000
   6         0.00000000
   7         0.02190681
   8         0.00000000
   9         0.00000000
  10        -0.00809538
  11         0.00000000
  12         0.00000000
  13         0.00000000
  14        -0.00360985
  15         0.00000000
  16         0.00000000
  17         0.00000000
  18         0.00000000
  19        -0.00111073
  20         0.00000000
  21         0.00000000
  22         0.00000000
  23         0.00000000
  24         0.00000000
  25         0.00000000
  26         0.00639799
  27         0.00000000
  28         0.00000000
  29         0.00112371
  30         0.00000000
  31         0.00000000
  32         0.00000000
  33         0.00000000
  34         0.00000000
  35        -0.00013320
  36         0.00000000
  37         0.00000000
  38        -0.00263965
  39         0.00000000
  40         0.00000000
Sym=     6a  
Ene=     0.0000
Spin= Alpha
Occup=    0.00000
   1         0.00000000
   2         0.00000000
   3         0.00000000
   4         0.00000000
   5         0.99649204
   6         0.00000000
   7         0.00000000
   8         0.02188828
   9         0.00000000
  10         0.00000000
  11        -0.00808607
  12         0.00000000
  13         0.00000000
  14         0.00000000
  15        -0.00361137
  16         0.00000000
  17         0.00000000
  18         0.00000000
  19         0.00000000
  20        -0.00111119
  21         0.00000000
  22         0.00000000
  23         0.00000000
  24         0.00000000
  25         0.00000000
  26         0.00000000
  27         0.00639988
  28         0.00000000
  29         0.00000000
  30         0.00112549
  31         0.00000000
  32         0.00000000
  33         0.00000000
  34         0.00000000
  35         0.00000000
  36        -0.00013364
  37         0.00000000
  38         0.00000000
  39        -0.00263982
  40         0.00000000
Sym=     7a  
Ene=     0.0000
Spin= Alpha
Occup=    0.00000
   1        -0.00492309
   2         0.00507803
   3        -0.00184495
   4         0.00000000
   5         0.00000000
   6        -0.00103631
   7         0.00000000
   8         0.00000000
   9         0.01913387
  10         0.00000000
  11         0.00000000
  12        -0.00176457
  13         0.00312030
  14         0.00000000
  15         0.00000000
  16        -0.00000004
  17         0.00000000
  18         0.02436401
  19         0.00000000
  20         0.00000000
  21        -0.00000097
  22         0.00000000
  23        -0.11042105
  24         0.22902675
  25         0.04325906
  26         0.00000000
  27         0.00000000
  28         0.22318504
  29         0.00000000
  30         0.00000000
  31        -0.04504453
  32        -0.21407439
  33         0.46488368
  34         0.35863701
  35         0.00000000
  36         0.00000000
  37        -0.19072145
  38         0.00000000
  39         0.00000000
  40         0.00760525
Sym=     8a  
Ene=     0.0000
Spin= Alpha
Occup=    0.00000
   1         0.03741365
   2        -0.07956285
   3         0.03613842
   4         0.00000000
   5         0.00000000
   6         0.07295877
   7         0.00000000
   8         0.00000000
   9        -0.05525792
  10         0.00000000
  11         0.00000000
  12         0.02796505
  13        -0.04892304
  14         0.00000000
  15         0.00000000
  16         0.00000099
  17         0.00000000
  18        -0.04371388
  19         0.00000000
  20         0.00000000
  21         0.00000422
  22         0.00000000
  23         0.17013254
  24        -0.41885536
  25        -0.22674040
  26         0.00000000
  27         0.00000000
  28        -0.00313006
  29         0.00000000
  30         0.00000000
  31         0.05296049
  32        -0.11644819
  33         0.25987091
  34         0.35809013
  35         0.00000000
  36         0.00000000
  37         0.42790543
  38         0.00000000
  39         0.00000000
  40         0.12809685
Sym=     9a  
Ene=     0.0000
Spin= Alpha
Occup=    0.00000
   1        -0.05025573
   2         0.16940145
   3        -0.01589092
   4         0.00000000
   5         0.00000000
   6        -0.13528997
   7         0.00000000
   8         0.00000000
   9         0.08599924
  10         0.00000000
  11         0.00000000
  12        -0.01506055
  13         0.10353547
  14         0.00000000
  15         0.00000000
  16        -0.00000410
  17         0.00000000
  18         0.04511142
  19         0.00000000
  20         0.00000000
  21        -0.00000791
  22         0.00000000
  23        -0.09618647
  24         0.19681990
  25         0.31438330
  26         0.00000000
  27         0.00000000
  28        -0.56581775
  29         0.00000000
  30         0.00000000
  31         0.03897074
  32        -0.02332903
  33         0.05222280
  34         0.10520395
  35         0.00000000
  36         0.00000000
  37         0.42466745
  38         0.00000000
  39         0.00000000
  40         0.12136739
Sym=    10a  
Ene=     0.0000
Spin= Alpha
Occup=    0.00000
   1         0.00000000
   2         0.00000000
   3         0.00000000
   4         0.00000000
   5        -0.01973298
   6         0.00000000
   7         0.00000000
   8        -0.00410745
   9         0.00000000
  10         0.00000000
  11         0.00673690
  12         0.00000000
  13         0.00000000
  14         0.00000000
  15         0.11033432
  16         0.00000000
  17         0.00000000
  18         0.00000000
  19         0.00000000
  20         0.02997549
  21         0.00000000
  22         0.00000000
  23         0.00000000
  24         0.00000000
  25         0.00000000
  26         0.00000000
  27         0.35662154
  28         0.00000000
  29         0.00000000
  30         0.08873828
  31         0.00000000
  32         0.00000000
  33         0.00000000
  34         0.00000000
  35         0.00000000
  36         0.60712301
  37         0.00000000
  38         0.00000000
  39         0.27630052
  40         0.00000000
Sym=    11a  
Ene=     0.0000
Spin= Alpha
Occup=    0.00000
   1         0.00000000
   2         0.00000000
   3         0.00000000
   4        -0.01973389
   5         0.00000000
   6         0.00000000
   7        -0.00413034
   8         0.00000000
   9         0.00000000
  10         0.00674650
  11         0.00000000
  12         0.00000000
  13         0.00000000
  14         0.11035514
  15         0.00000000
  16         0.00000000
  17         0.00000000
  18         0.00000000
  19         0.02996883
  20         0.00000000
  21         0.00000000
  22         0.00000000
  23         0.00000000
  24         0.00000000
  25         0.00000000
  26         0.35662491
  27         0.00000000
  28         0.00000000
  29         0.08878130
  30         0.00000000
  31         0.00000000
  32         0.00000000
  33         0.00000000
  34         0.00000000
  35         0.60712101
  36         0.00000000
  37         0.00000000
  38         0.27626997
  39         0.00000000
  40         0.00000000
Sym=    12a  
Ene=     0.0000
Spin= Alpha
Occup=    0.00000
   1         0.00000000
   2         0.00000000
   3         0.00000000
   4        -0.01390492
   5         0.00000000
   6         0.00000000
   7         0.04410367
   8         0.00000000
   9         0.00000000
  10        -0.01948987
  11         0.00000000
  12         0.00000000
  13         0.00000000
  14         0.74438445
  15         0.00000000
  16         0.00000000
  17         0.00000000
  18         0.00000000
  19         0.35680708
  20         0.00000000
  21         0.00000000
  22         0.00000000
  23         0.00000000
  24         0.00000000
  25         0.00000000
  26         0.14191732
  27         0.00000000
  28         0.00000000
  29         0.06570632
  30         0.00000000
  31         0.00000000
  32         0.00000000
  33         0.00000000
  34         0.00000000
  35        -0.23372086
  36         0.00000000
  37         0.00000000
  38        -0.16223762
  39         0.00000000
  40         0.00000000
Sym=    13a  
Ene=     0.0000
Spin= Alpha
Occup=    0.00000
   1         0.00000000
   2         0.00000000
   3         0.00000000
   4         0.00000000
   5        -0.01391898
   6         0.00000000
   7         0.00000000
   8         0.04410285
   9         0.00000000
  10         0.00000000
  11        -0.01947570
  12         0.00000000
  13         0.00000000
  14         0.00000000
  15         0.74430070
  16         0.00000000
  17         0.00000000
  18         0.00000000
  19         0.00000000
  20         0.35679746
  21         0.00000000
  22         0.00000000
  23         0.00000000
  24         0.00000000
  25         0.00000000
  26         0.00000000
  27         0.14202833
  28         0.00000000
  29         0.00000000
  30         0.06583564
  31         0.00000000
  32         0.00000000
  33         0.00000000
  34         0.00000000
  35         0.00000000
  36        -0.23377768
  37         0.00000000
  38         0.00000000
  39        -0.16231086
  40         0.00000000
Sym=    14a  
Ene=     0.0000
Spin= Alpha
Occup=    0.00000
   1        -0.00000535
   2        -0.00000251
   3         0.00002077
   4         0.00000000
   5         0.00000000
   6        -0.00000194
   7         0.00000000
   8         0.00000000
   9        -0.00001355
  10         0.00000000
  11         0.00000000
  12        -0.00000208
  13        -0.00000846
  14         0.00000000
  15         0.00000000
  16         0.82891572
  17         0.00000000
  18        -0.00004050
  19         0.00000000
  20         0.00000000
  21         0.36710623
  22         0.00000000
  23        -0.00000085
  24         0.00000447
  25         0.00004551
  26         0.00000000
  27         0.00000000
  28        -0.00000677
  29         0.00000000
  30         0.00000000
  31         0.00001404
  32         0.00000111
  33         0.00000315
  34        -0.00002775
  35         0.00000000
  36         0.00000000
  37         0.00000409
  38         0.00000000
  39         0.00000000
  40         0.00000771
Sym=    15a  
Ene=     0.0000
Spin= Alpha
Occup=    0.00000
   1         0.00000000
   2         0.00000000
   3         0.00000000
   4         0.00000000
   5         0.00000000
   6         0.00000000
   7         0.00000000
   8         0.00000000
   9         0.00000000
  10         0.00000000
  11         0.00000000
  12         0.00000000
  13         0.00000000
  14         0.00000000
  15         0.00000000
  16         0.00000000
  17         0.82891530
  18         0.00000000
  19         0.00000000
  20         0.00000000
  21         0.00000000
  22         0.36710688
  23         0.00000000
  24         0.00000000
  25         0.00000000
  26         0.00000000
  27         0.00000000
  28         0.00000000
  29         0.00000000
  30         0.00000000
  31         0.00000000
  32         0.00000000
  33         0.00000000
  34         0.00000000
  35         0.00000000
  36         0.00000000
  37         0.00000000
  38         0.00000000
  39         0.00000000
  40         0.00000000
Sym=    16a  
Ene=     0.0000
Spin= Alpha
Occup=    0.00000
   1         0.02197395
   2        -0.18274682
   3        -0.80958404
   4         0.00000000
   5         0.00000000
   6        -0.08086458
   7         0.00000000
   8         0.00000000
   9        -0.05181248
  10         0.00000000
  11         0.00000000
  12         0.63055543
  13         0.02425223
  14         0.00000000
  15         0.00000000
  16         0.00001918
  17         0.00000000
  18        -0.04101559
  19         0.00000000
  20         0.00000000
  21         0.00000639
  22         0.00000000
  23        -0.02279733
  24         0.02250012
  25         0.24433436
  26         0.00000000
  27         0.00000000
  28        -0.05061228
  29         0.00000000
  30         0.00000000
  31        -0.26357159
  32         0.00418418
  33        -0.02831673
  34         0.06695284
  35         0.00000000
  36         0.00000000
  37         0.01818061
  38         0.00000000
  39         0.00000000
  40        -0.00897268
Sym=    17a  
Ene=     0.0000
Spin= Alpha
Occup=    0.00000
   1         0.00000000
   2         0.00000000
   3         0.00000000
   4         0.00000000
   5        -0.04988967
   6         0.00000000
   7         0.00000000
   8         0.02092615
   9         0.00000000
  10         0.00000000
  11         0.98120797
  12         0.00000000
  13         0.00000000
  14         0.00000000
  15        -0.06847983
  16         0.00000000
  17         0.00000000
  18         0.00000000
  19         0.00000000
  20        -0.02882997
  21         0.00000000
  22         0.00000000
  23         0.00000000
  24         0.00000000
  25         0.00000000
  26         0.00000000
  27         0.07586408
  28         0.00000000
  29         0.00000000
  30        -0.00465580
  31         0.00000000
  32         0.00000000
  33         0.00000000
  34         0.00000000
  35         0.00000000
  36        -0.10107122
  37         0.00000000
  38         0.00000000
  39        -0.08862912
  40         0.00000000
Sym=    18a  
Ene=     0.0000
Spin= Alpha
Occup=    0.00000
   1         0.00000000
   2         0.00000000
   3         0.00000000
   4         0.04989851
   5         0.00000000
   6         0.00000000
   7        -0.02102626
   8         0.00000000
   9         0.00000000
  10        -0.98117963
  11         0.00000000
  12         0.00000000
  13         0.00000000
  14         0.06840629
  15         0.00000000
  16         0.00000000
  17         0.00000000
  18         0.00000000
  19         0.02877745
  20         0.00000000
  21         0.00000000
  22         0.00000000
  23         0.00000000
  24         0.00000000
  25         0.00000000
  26        -0.07584925
  27         0.00000000
  28         0.00000000
  29         0.00474878
  30         0.00000000
  31         0.00000000
  32         0.00000000
  33         0.00000000
  34         0.00000000
  35         0.10108642
  36         0.00000000
  37         0.00000000
  38         0.08858860
  39         0.00000000
  40         0.00000000
Sym=    19a  
Ene=     0.0000
Spin= Alpha
Occup=    0.00000
   1         0.04072623
   2        -0.13459789
   3        -0.64717849
   4         0.00000000
   5         0.00000000
   6        -0.05977128
   7         0.00000000
   8         0.00000000
   9         0.25346907
  10         0.00000000
  11         0.00000000
  12        -1.03859770
  13         0.09043470
  14         0.00000000
  15         0.00000000
  16         0.00001743
  17         0.00000000
  18         0.02779400
  19         0.00000000
  20         0.00000000
  21         0.00000479
  22         0.00000000
  23        -0.03436070
  24         0.03923153
  25         0.47471510
  26         0.00000000
  27         0.00000000
  28        -0.08320910
  29         0.00000000
  30         0.00000000
  31        -0.01187142
  32        -0.01781832
  33         0.04122902
  34         0.07850984
  35         0.00000000
  36         0.00000000
  37         0.03056760
  38         0.00000000
  39         0.00000000
  40         0.13183718
Sym=    20a  
Ene=     0.0000
Spin= Alpha
Occup=    0.00000
   1         0.00000000
   2         0.00000000
   3         0.00000000
   4         0.15080162
   5         0.00000000
   6         0.00000000
   7        -0.83148682
   8         0.00000000
   9         0.00000000
  10         0.74270101
  11         0.00000000
  12         0.00000000
  13         0.00000000
  14         0.26122481
  15         0.00000000
  16         0.00000000
  17         0.00000000
  18         0.00000000
  19         0.12425810
  20         0.00000000
  21         0.00000000
  22         0.00000000
  23         0.00000000
  24         0.00000000
  25         0.00000000
  26        -0.38530470
  27         0.00000000
  28         0.00000000
  29        -0.31792788
  30         0.00000000
  31         0.00000000
  32         0.00000000
  33         0.00000000
  34         0.00000000
  35         0.25292600
  36         0.00000000
  37         0.00000000
  38         0.25028462
  39         0.00000000
  40         0.00000000
Sym=    21a  
Ene=     0.0000
Spin= Alpha
Occup=    0.00000
   1         0.00000000
   2         0.00000000
   3         0.00000000
   4         0.00000000
   5         0.15074566
   6         0.00000000
   7         0.00000000
   8        -0.83091063
   9         0.00000000
  10         0.00000000
  11         0.74251633
  12         0.00000000
  13         0.00000000
  14         0.00000000
  15         0.26142261
  16         0.00000000
  17         0.00000000
  18         0.00000000
  19         0.00000000
  20         0.12442103
  21         0.00000000
  22         0.00000000
  23         0.00000000
  24         0.00000000
  25         0.00000000
  26         0.00000000
  27        -0.38542271
  28         0.00000000
  29         0.00000000
  30        -0.31836647
  31         0.00000000
  32         0.00000000
  33         0.00000000
  34         0.00000000
  35         0.00000000
  36         0.25300901
  37         0.00000000
  38         0.00000000
  39         0.25042845
  40         0.00000000
Sym=    22a  
Ene=     0.0000
Spin= Alpha
Occup=    0.00000
   1         0.00923028
   2         0.26103891
   3        -0.96094563
   4         0.00000000
   5         0.00000000
   6         0.10241295
   7         0.00000000
   8         0.00000000
   9        -1.65502353
  10         0.00000000
  11         0.00000000
  12         0.66786951
  13         0.18033607
  14         0.00000000
  15         0.00000000
  16         0.00002379
  17         0.00000000
  18         0.05600327
  19         0.00000000
  20         0.00000000
  21        -0.00000681
  22         0.00000000
  23        -0.02553970
  24        -0.05144557
  25         0.95486543
  26         0.00000000
  27         0.00000000
  28        -0.03379627
  29         0.00000000
  30         0.00000000
  31        -0.44402025
  32        -0.01461558
  33         0.02427656
  34         0.14572679
  35         0.00000000
  36         0.00000000
  37        -0.03959575
  38         0.00000000
  39         0.00000000
  40         0.03133016
Sym=    23a  
Ene=     0.0000
Spin= Alpha
Occup=    0.00000
   1         0.00000000
   2         0.00000000
   3         0.00000000
   4        -0.10961130
   5         0.00000000
   6         0.00000000
   7         1.29451271
   8         0.00000000
   9         0.00000000
  10        -0.46869621
  11         0.00000000
  12         0.00000000
  13         0.00000000
  14         0.27773790
  15         0.00000000
  16         0.00000000
  17         0.00000000
  18         0.00000000
  19         0.13081794
  20         0.00000000
  21         0.00000000
  22         0.00000000
  23         0.00000000
  24         0.00000000
  25         0.00000000
  26        -0.41312315
  27         0.00000000
  28         0.00000000
  29        -0.87474905
  30         0.00000000
  31         0.00000000
  32         0.00000000
  33         0.00000000
  34         0.00000000
  35         0.26828850
  36         0.00000000
  37         0.00000000
  38         0.39452892
  39         0.00000000
  40         0.00000000
Sym=    24a  
Ene=     0.0000
Spin= Alpha
Occup=    0.00000
   1         0.00000000
   2         0.00000000
   3         0.00000000
   4         0.00000000
   5         0.10966872
   6         0.00000000
   7         0.00000000
   8        -1.29487758
   9         0.00000000
  10         0.00000000
  11         0.46893714
  12         0.00000000
  13         0.00000000
  14         0.00000000
  15        -0.27769145
  16         0.00000000
  17         0.00000000
  18         0.00000000
  19         0.00000000
  20        -0.13082447
  21         0.00000000
  22         0.00000000
  23         0.00000000
  24         0.00000000
  25         0.00000000
  26         0.00000000
  27         0.41293749
  28         0.00000000
  29         0.00000000
  30         0.87464811
  31         0.00000000
  32         0.00000000
  33         0.00000000
  34         0.00000000
  35         0.00000000
  36        -0.26814401
  37         0.00000000
  38         0.00000000
  39        -0.39441059
  40         0.00000000
Sym=    25a  
Ene=     0.0000
Spin= Alpha
Occup=    0.00000
   1        -0.08585544
   2        -0.59909691
   3         0.89000674
   4         0.00000000
   5         0.00000000
   6         0.07316757
   7         0.00000000
   8         0.00000000
   9         0.15574444
  10         0.00000000
  11         0.00000000
  12         0.04267350
  13         0.42888952
  14         0.00000000
  15         0.00000000
  16         0.00002137
  17         0.00000000
  18         0.44315774
  19         0.00000000
  20         0.00000000
  21         0.00000150
  22         0.00000000
  23        -0.01073605
  24         0.05953352
  25        -0.27301588
  26         0.00000000
  27         0.00000000
  28        -0.03664913
  29         0.00000000
  30         0.00000000
  31         0.75447422
  32         0.03155494
  33        -0.03133416
  34        -0.45516968
  35         0.00000000
  36         0.00000000
  37        -0.00910662
  38         0.00000000
  39         0.00000000
  40        -0.01108758
Sym=    26a  
Ene=     0.0000
Spin= Alpha
Occup=    0.00000
   1        -0.03751477
   2        -0.34501841
   3        -0.38915842
   4         0.00000000
   5         0.00000000
   6         0.03134434
   7         0.00000000
   8         0.00000000
   9        -1.11237110
  10         0.00000000
  11         0.00000000
  12         0.04428664
  13        -0.45494563
  14         0.00000000
  15         0.00000000
  16        -0.00003705
  17         0.00000000
  18        -0.48550865
  19         0.00000000
  20         0.00000000
  21         0.00003212
  22         0.00000000
  23        -0.07490017
  24        -0.01430950
  25         2.54951057
  26         0.00000000
  27         0.00000000
  28         0.08590344
  29         0.00000000
  30         0.00000000
  31         0.87826820
  32         0.08966927
  33        -0.11814680
  34        -1.32463879
  35         0.00000000
  36         0.00000000
  37         0.13659799
  38         0.00000000
  39         0.00000000
  40         0.61060648
Sym=    27a  
Ene=     0.0000
Spin= Alpha
Occup=    0.00000
   1         0.00000000
   2         0.00000000
   3         0.00000000
   4        -0.02411894
   5         0.00000000
   6         0.00000000
   7        -0.41787902
   8         0.00000000
   9         0.00000000
  10        -0.12018529
  11         0.00000000
  12         0.00000000
  13         0.00000000
  14         0.03124558
  15         0.00000000
  16         0.00000000
  17         0.00000000
  18         0.00000000
  19        -0.14399858
  20         0.00000000
  21         0.00000000
  22         0.00000000
  23         0.00000000
  24         0.00000000
  25         0.00000000
  26        -0.97609946
  27         0.00000000
  28         0.00000000
  29         1.47023532
  30         0.00000000
  31         0.00000000
  32         0.00000000
  33         0.00000000
  34         0.00000000
  35        -0.03860586
  36         0.00000000
  37         0.00000000
  38        -0.12646124
  39         0.00000000
  40         0.00000000
Sym=    28a  
Ene=     0.0000
Spin= Alpha
Occup=    0.00000
   1         0.00000000
   2         0.00000000
   3         0.00000000
   4         0.00000000
   5        -0.02411323
   6         0.00000000
   7         0.00000000
   8        -0.41794546
   9         0.00000000
  10         0.00000000
  11        -0.12015798
  12         0.00000000
  13         0.00000000
  14         0.00000000
  15         0.03124946
  16         0.00000000
  17         0.00000000
  18         0.00000000
  19         0.00000000
  20        -0.14399515
  21         0.00000000
  22         0.00000000
  23         0.00000000
  24         0.00000000
  25         0.00000000
  26         0.00000000
  27        -0.97613185
  28         0.00000000
  29         0.00000000
  30         1.47032614
  31         0.00000000
  32         0.00000000
  33         0.00000000
  34         0.00000000
  35         0.00000000
  36        -0.03846439
  37         0.00000000
  38         0.00000000
  39        -0.12663280
  40         0.00000000
Sym=    29a  
Ene=     0.0000
Spin= Alpha
Occup=    0.00000
   1         0.22129617
   2         0.60530136
   3        -0.77789567
   4         0.00000000
   5         0.00000000
   6        -0.02173824
   7         0.00000000
   8         0.00000000
   9         0.04844073
  10         0.00000000
  11         0.00000000
  12        -0.30770785
  13         0.49707853
  14         0.00000000
  15         0.00000000
  16         0.00001930
  17         0.00000000
  18        -0.11764591
  19         0.00000000
  20         0.00000000
  21        -0.00003372
  22         0.00000000
  23         0.05835313
  24        -0.67330753
  25         1.97861092
  26         0.00000000
  27         0.00000000
  28         0.77575491
  29         0.00000000
  30         0.00000000
  31         0.19805618
  32         0.06780232
  33        -0.14745399
  34        -0.93542307
  35         0.00000000
  36         0.00000000
  37        -0.14106212
  38         0.00000000
  39         0.00000000
  40         1.02825929
Sym=    30a  
Ene=     0.0000
Spin= Alpha
Occup=    0.00000
   1        -0.00002565
   2        -0.00004436
   3        -0.00003292
   4         0.00000000
   5         0.00000000
   6        -0.00000389
   7         0.00000000
   8         0.00000000
   9        -0.00011889
  10         0.00000000
  11         0.00000000
  12         0.00002611
  13         0.00012702
  14         0.00000000
  15         0.00000000
  16        -0.63764668
  17         0.00000000
  18        -0.00017571
  19         0.00000000
  20         0.00000000
  21         0.97924847
  22         0.00000000
  23         0.00000321
  24         0.00001878
  25         0.00012238
  26         0.00000000
  27         0.00000000
  28        -0.00009165
  29         0.00000000
  30         0.00000000
  31         0.00002021
  32        -0.00000317
  33         0.00001880
  34        -0.00000954
  35         0.00000000
  36         0.00000000
  37        -0.00002980
  38         0.00000000
  39         0.00000000
  40        -0.00001512
Sym=    31a  
Ene=     0.0000
Spin= Alpha
Occup=    0.00000
   1         0.00000000
   2         0.00000000
   3         0.00000000
   4         0.00000000
   5         0.00000000
   6         0.00000000
   7         0.00000000
   8         0.00000000
   9         0.00000000
  10         0.00000000
  11         0.00000000
  12         0.00000000
  13         0.00000000
  14         0.00000000
  15         0.00000000
  16         0.00000000
  17        -0.63764724
  18         0.00000000
  19         0.00000000
  20         0.00000000
  21         0.00000000
  22         0.97924824
  23         0.00000000
  24         0.00000000
  25         0.00000000
  26         0.00000000
  27         0.00000000
  28         0.00000000
  29         0.00000000
  30         0.00000000
  31         0.00000000
  32         0.00000000
  33         0.00000000
  34         0.00000000
  35         0.00000000
  36         0.00000000
  37         0.00000000
  38         0.00000000
  39         0.00000000
  40         0.00000000
Sym=    32a  
Ene=     0.0000
Spin= Alpha
Occup=    0.00000
   1        -0.11625723
   2        -0.22310538
   3         0.42492843
   4         0.00000000
   5         0.00000000
   6         0.00200160
   7         0.00000000
   8         0.00000000
   9         0.32299962
  10         0.00000000
  11         0.00000000
  12        -0.02455960
  13        -0.04494472
  14         0.00000000
  15         0.00000000
  16        -0.00000457
  17         0.00000000
  18         0.05509431
  19         0.00000000
  20         0.00000000
  21         0.00000929
  22         0.00000000
  23        -0.04052371
  24         1.43631562
  25        -0.91368777
  26         0.00000000
  27         0.00000000
  28         0.35212073
  29         0.00000000
  30         0.00000000
  31        -0.30725384
  32         0.03555346
  33        -0.02009921
  34        -0.14952963
  35         0.00000000
  36         0.00000000
  37        -0.33126412
  38         0.00000000
  39         0.00000000
  40         1.26139512
Sym=    33a  
Ene=     0.0000
Spin= Alpha
Occup=    0.00000
   1         0.00000000
   2         0.00000000
   3         0.00000000
   4         0.01330730
   5         0.00000000
   6         0.00000000
   7        -0.18567123
   8         0.00000000
   9         0.00000000
  10        -0.00492508
  11         0.00000000
  12         0.00000000
  13         0.00000000
  14         0.53776386
  15         0.00000000
  16         0.00000000
  17         0.00000000
  18         0.00000000
  19        -0.93214737
  20         0.00000000
  21         0.00000000
  22         0.00000000
  23         0.00000000
  24         0.00000000
  25         0.00000000
  26         0.21822391
  27         0.00000000
  28         0.00000000
  29         0.13281530
  30         0.00000000
  31         0.00000000
  32         0.00000000
  33         0.00000000
  34         0.00000000
  35        -0.50321925
  36         0.00000000
  37         0.00000000
  38         0.49757512
  39         0.00000000
  40         0.00000000
Sym=    34a  
Ene=     0.0000
Spin= Alpha
Occup=    0.00000
   1         0.00000000
   2         0.00000000
   3         0.00000000
   4         0.00000000
   5         0.01330943
   6         0.00000000
   7         0.00000000
   8        -0.18570266
   9         0.00000000
  10         0.00000000
  11        -0.00491445
  12         0.00000000
  13         0.00000000
  14         0.00000000
  15         0.53778390
  16         0.00000000
  17         0.00000000
  18         0.00000000
  19         0.00000000
  20        -0.93212142
  21         0.00000000
  22         0.00000000
  23         0.00000000
  24         0.00000000
  25         0.00000000
  26         0.00000000
  27         0.21812315
  28         0.00000000
  29         0.00000000
  30         0.13287640
  31         0.00000000
  32         0.00000000
  33         0.00000000
  34         0.00000000
  35         0.00000000
  36        -0.50323573
  37         0.00000000
  38         0.00000000
  39         0.49762309
  40         0.00000000
Sym=    35a  
Ene=     0.0000
Spin= Alpha
Occup=    0.00000
   1        -0.01668753
   2         0.02349884
   3         0.15964511
   4         0.00000000
   5         0.00000000
   6         0.06621310
   7         0.00000000
   8         0.00000000
   9         0.30466367
  10         0.00000000
  11         0.00000000
  12         0.04957660
  13        -0.03752638
  14         0.00000000
  15         0.00000000
  16        -0.00003388
  17         0.00000000
  18         0.42780548
  19         0.00000000
  20         0.00000000
  21         0.00005861
  22         0.00000000
  23        -0.08959038
  24         0.53885017
  25        -0.73454664
  26         0.00000000
  27         0.00000000
  28         1.07467148
  29         0.00000000
  30         0.00000000
  31        -0.53230780
  32         0.03885880
  33        -0.16475083
  34        -0.03004654
  35         0.00000000
  36         0.00000000
  37         0.92838911
  38         0.00000000
  39         0.00000000
  40        -0.27893264
Sym=    36a  
Ene=     0.0000
Spin= Alpha
Occup=    0.00000
   1         0.00000000
   2         0.00000000
   3         0.00000000
   4         0.00000000
   5         0.00420000
   6         0.00000000
   7         0.00000000
   8         0.63558920
   9         0.00000000
  10         0.00000000
  11        -0.10676115
  12         0.00000000
  13         0.00000000
  14         0.00000000
  15        -0.32694650
  16         0.00000000
  17         0.00000000
  18         0.00000000
  19         0.00000000
  20         0.80425615
  21         0.00000000
  22         0.00000000
  23         0.00000000
  24         0.00000000
  25         0.00000000
  26         0.00000000
  27        -0.05861367
  28         0.00000000
  29         0.00000000
  30        -1.25517955
  31         0.00000000
  32         0.00000000
  33         0.00000000
  34         0.00000000
  35         0.00000000
  36        -0.77353552
  37         0.00000000
  38         0.00000000
  39         1.47924838
  40         0.00000000
Sym=    37a  
Ene=     0.0000
Spin= Alpha
Occup=    0.00000
   1         0.00000000
   2         0.00000000
   3         0.00000000
   4         0.00420470
   5         0.00000000
   6         0.00000000
   7         0.63562766
   8         0.00000000
   9         0.00000000
  10        -0.10675989
  11         0.00000000
  12         0.00000000
  13         0.00000000
  14        -0.32691620
  15         0.00000000
  16         0.00000000
  17         0.00000000
  18         0.00000000
  19         0.80424957
  20         0.00000000
  21         0.00000000
  22         0.00000000
  23         0.00000000
  24         0.00000000
  25         0.00000000
  26        -0.05851328
  27         0.00000000
  28         0.00000000
  29        -1.25533660
  30         0.00000000
  31         0.00000000
  32         0.00000000
  33         0.00000000
  34         0.00000000
  35        -0.77353299
  36         0.00000000
  37         0.00000000
  38         1.47928814
  39         0.00000000
  40         0.00000000
Sym=    38a  
Ene=     0.0000
Spin= Alpha
Occup=    0.00000
   1         0.12108342
   2         0.37440500
   3         0.02124018
   4         0.00000000
   5         0.00000000
   6        -0.02116159
   7         0.00000000
   8         0.00000000
   9         0.75837854
  10         0.00000000
  11         0.00000000
  12        -0.20392915
  13        -0.64620658
  14         0.00000000
  15         0.00000000
  16        -0.00006879
  17         0.00000000
  18         1.25610359
  19         0.00000000
  20         0.00000000
  21         0.00013078
  22         0.00000000
  23         0.04582304
  24        -0.69758172
  25        -0.24254898
  26         0.00000000
  27         0.00000000
  28         0.39287886
  29         0.00000000
  30         0.00000000
  31        -0.21154944
  32        -0.01416335
  33         0.10578378
  34        -0.04829233
  35         0.00000000
  36         0.00000000
  37        -0.24775901
  38         0.00000000
  39         0.00000000
  40         0.36574254
Sym=    39a  
Ene=     0.0000
Spin= Alpha
Occup=    0.00000
   1        -0.47006047
   2        -0.86515536
   3         0.01649102
   4         0.00000000
   5         0.00000000
   6        -0.05367516
   7         0.00000000
   8         0.00000000
   9        -0.96673959
  10         0.00000000
  11         0.00000000
  12         0.17822838
  13         0.10017411
  14         0.00000000
  15         0.00000000
  16         0.00000569
  17         0.00000000
  18        -0.45185528
  19         0.00000000
  20         0.00000000
  21        -0.00001533
  22         0.00000000
  23         0.02200614
  24        -0.08930056
  25         3.06021868
  26         0.00000000
  27         0.00000000
  28         0.35424344
  29         0.00000000
  30         0.00000000
  31         0.33943957
  32        -0.09134666
  33         1.91941070
  34        -3.42202854
  35         0.00000000
  36         0.00000000
  37         0.00331482
  38         0.00000000
  39         0.00000000
  40         1.02787172
Sym=    40a  
Ene=     0.0000
Spin= Alpha
Occup=    0.00000
   1         2.54094257
   2         3.81290358
   3        -0.89982903
   4         0.00000000
   5         0.00000000
   6         0.22724409
   7         0.00000000
   8         0.00000000
   9         2.31892126
  10         0.00000000
  11         0.00000000
  12        -0.87459016
  13        -0.04253805
  14         0.00000000
  15         0.00000000
  16        -0.00000183
  17         0.00000000
  18         0.40571701
  19         0.00000000
  20         0.00000000
  21         0.00000537
  22         0.00000000
  23         0.01867987
  24         1.01251948
  25        -2.78728228
  26         0.00000000
  27         0.00000000
  28        -0.05237180
  29         0.00000000
  30         0.00000000
  31         3.36199059
  32        -0.00745525
  33         0.86702815
  34        -2.21965997
  35         0.00000000
  36         0.00000000
  37         0.09470298
  38         0.00000000
  39         0.00000000
  40        -0.05915473
