[Molden Format]
[N_Atoms]
                    3
[Atoms] (AU)
FE1         1     26           0.00000000      0.00000000      0.00000000
C2          2      6           0.00000000      0.00000000      3.30702072
O3          3      8           0.00000000      0.00000000      5.57469207
[5D]
[Charge] (Mulliken)
   9.0093059893407101E-002
  0.27828564296635872     
 -0.36837870286043994     
[GTO] (AU)
   1
   s   3
  6.422000000E+00 -3.927882259E-01
  1.826000000E+00  7.712643508E-01
  7.135000000E-01  4.920228324E-01
   s   4
  6.422000000E+00  1.786877071E-01
  1.826000000E+00 -4.194032166E-01
  7.135000000E-01 -4.568185181E-01
  1.021000000E-01  1.103504844E+00
   s   1
  3.630000000E-02  1.000000000E+00
   p   3
  1.948000000E+01 -4.702820002E-02
  2.389000000E+00  6.248841003E-01
  7.795000000E-01  4.722542002E-01
   p   1
  7.400000000E-02  1.000000000E+00
   p   1
  2.200000000E-02  1.000000000E+00
   d   4
  3.708000000E+01  3.290000268E-02
  1.010000000E+01  1.787418146E-01
  3.220000000E+00  4.487657366E-01
  9.628000000E-01  5.876361479E-01
   d   1
  2.262000000E-01  1.000000000E+00
 
   2
   s   7
  4.233000000E+03  1.219999687E-03
  6.349000000E+02  9.341997607E-03
  1.461000000E+02  4.545198836E-02
  4.250000000E+01  1.546569604E-01
  1.419000000E+01  3.588659081E-01
  5.148000000E+00  4.386318876E-01
  1.967000000E+00  1.459179626E-01
   s   2
  5.148000000E+00 -1.683669561E-01
  4.962000000E-01  1.060090723E+00
   s   1
  1.533000000E-01  1.000000000E+00
   p   4
  1.816000000E+01  1.853899981E-02
  3.986000000E+00  1.154359988E-01
  1.143000000E+00  3.861879960E-01
  3.594000000E-01  6.401139934E-01
   p   1
  1.146000000E-01  1.000000000E+00
 
   3
   s   7
  7.817000000E+03  1.176000331E-03
  1.176000000E+03  8.968002523E-03
  2.732000000E+02  4.286801206E-02
  8.117000000E+01  1.439300405E-01
  2.718000000E+01  3.556301000E-01
  9.532000000E+00  4.612481297E-01
  3.414000000E+00  1.402060394E-01
   s   2
  9.532000000E+00 -1.541530739E-01
  9.398000000E-01  1.056914507E+00
   s   1
  2.846000000E-01  1.000000000E+00
   p   4
  3.518000000E+01  1.958000050E-02
  7.904000000E+00  1.242000032E-01
  2.305000000E+00  3.947140101E-01
  7.171000000E-01  6.273760161E-01
   p   1
  2.137000000E-01  1.000000000E+00
 
[MO]
Sym=     1a  
Ene=   -20.5930
Spin= Alpha
Occup=    2.00000
   1        -0.00038309
   2        -0.00047524
   3         0.00013902
   4         0.00000000
   5         0.00000000
   6        -0.00004808
   7         0.00000000
   8         0.00000000
   9        -0.00005707
  10         0.00000000
  11         0.00000000
  12         0.00002962
  13        -0.00002646
  14         0.00000000
  15         0.00000000
  16        -0.00000000
  17         0.00000000
  18         0.00010294
  19         0.00000000
  20         0.00000000
  21        -0.00000001
  22         0.00000000
  23        -0.00000811
  24        -0.00007455
  25        -0.00040484
  26         0.00000000
  27         0.00000000
  28        -0.00006153
  29         0.00000000
  30         0.00000000
  31        -0.00091222
  32         0.99974482
  33        -0.00052353
  34         0.00272043
  35         0.00000000
  36         0.00000000
  37        -0.00179668
  38         0.00000000
  39         0.00000000
  40         0.00035450
Sym=     2a  
Ene=   -11.3410
Spin= Alpha
Occup=    2.00000
   1        -0.00015803
   2        -0.00000089
   3        -0.00008825
   4         0.00000000
   5         0.00000000
   6         0.00017276
   7         0.00000000
   8         0.00000000
   9         0.00040465
  10         0.00000000
  11         0.00000000
  12        -0.00010559
  13         0.00009404
  14         0.00000000
  15         0.00000000
  16        -0.00000001
  17         0.00000000
  18         0.00072998
  19         0.00000000
  20         0.00000000
  21        -0.00000002
  22         0.00000000
  23         0.99913780
  24         0.00326085
  25         0.00079916
  26         0.00000000
  27         0.00000000
  28         0.00285940
  29         0.00000000
  30         0.00000000
  31        -0.00117976
  32        -0.00043830
  33         0.00082543
  34        -0.00087721
  35         0.00000000
  36         0.00000000
  37        -0.00086586
  38         0.00000000
  39         0.00000000
  40         0.00130087
Sym=     3a  
Ene=    -3.9882
Spin= Alpha
Occup=    2.00000
   1         1.00395996
   2         0.01337125
   3        -0.00450733
   4         0.00000000
   5         0.00000000
   6        -0.00277851
   7         0.00000000
   8         0.00000000
   9        -0.00050160
  10         0.00000000
  11         0.00000000
  12         0.00013986
  13         0.01491785
  14         0.00000000
  15         0.00000000
  16        -0.00000287
  17         0.00000000
  18        -0.00184377
  19         0.00000000
  20         0.00000000
  21         0.00000043
  22         0.00000000
  23        -0.00148134
  24         0.00293180
  25        -0.00025224
  26         0.00000000
  27         0.00000000
  28        -0.00368436
  29         0.00000000
  30         0.00000000
  31         0.00061540
  32         0.00002228
  33         0.00001761
  34         0.00065448
  35         0.00000000
  36         0.00000000
  37        -0.00016403
  38         0.00000000
  39         0.00000000
  40        -0.00016366
Sym=     4a  
Ene=    -2.6147
Spin= Alpha
Occup=    2.00000
   1        -0.00756051
   2        -0.01185997
   3         0.00170990
   4         0.00000000
   5         0.00000000
   6         0.99306770
   7         0.00000000
   8         0.00000000
   9         0.00984782
  10         0.00000000
  11         0.00000000
  12        -0.00326348
  13        -0.00272199
  14         0.00000000
  15         0.00000000
  16         0.00000017
  17         0.00000000
  18        -0.00440266
  19         0.00000000
  20         0.00000000
  21        -0.00000039
  22         0.00000000
  23        -0.00698548
  24         0.01528429
  25         0.01249788
  26         0.00000000
  27         0.00000000
  28        -0.01981815
  29         0.00000000
  30         0.00000000
  31        -0.00806432
  32         0.00014548
  33         0.00041457
  34         0.00287610
  35         0.00000000
  36         0.00000000
  37        -0.00087302
  38         0.00000000
  39         0.00000000
  40         0.00200593
Sym=     5a  
Ene=    -2.5842
Spin= Alpha
Occup=    2.00000
   1         0.00000000
   2         0.00000000
   3         0.00000000
   4         0.99648949
   5         0.00000000
   6         0.00000000
   7         0.02190682
   8         0.00000000
   9         0.00000000
  10        -0.00809538
  11         0.00000000
  12         0.00000000
  13         0.00000000
  14        -0.00360980
  15         0.00000000
  16         0.00000000
  17         0.00000000
  18         0.00000000
  19        -0.00111074
  20         0.00000000
  21         0.00000000
  22         0.00000000
  23         0.00000000
  24         0.00000000
  25         0.00000000
  26         0.00639797
  27         0.00000000
  28         0.00000000
  29         0.00112371
  30         0.00000000
  31         0.00000000
  32         0.00000000
  33         0.00000000
  34         0.00000000
  35        -0.00013320
  36         0.00000000
  37         0.00000000
  38        -0.00263964
  39         0.00000000
  40         0.00000000
Sym=     6a  
Ene=    -2.5842
Spin= Alpha
Occup=    2.00000
   1         0.00000000
   2         0.00000000
   3         0.00000000
   4         0.00000000
   5         0.99649204
   6         0.00000000
   7         0.00000000
   8         0.02188827
   9         0.00000000
  10         0.00000000
  11        -0.00808606
  12         0.00000000
  13         0.00000000
  14         0.00000000
  15        -0.00361137
  16         0.00000000
  17         0.00000000
  18         0.00000000
  19         0.00000000
  20        -0.00111120
  21         0.00000000
  22         0.00000000
  23         0.00000000
  24         0.00000000
  25         0.00000000
  26         0.00000000
  27         0.00639989
  28         0.00000000
  29         0.00000000
  30         0.00112550
  31         0.00000000
  32         0.00000000
  33         0.00000000
  34         0.00000000
  35         0.00000000
  36        -0.00013364
  37         0.00000000
  38         0.00000000
  39        -0.00263983
  40         0.00000000
Sym=     7a  
Ene=    -1.4318
Spin= Alpha
Occup=    2.00000
   1         0.00492308
   2        -0.00507803
   3         0.00184495
   4         0.00000000
   5         0.00000000
   6         0.00103630
   7         0.00000000
   8         0.00000000
   9        -0.01913387
  10         0.00000000
  11         0.00000000
  12         0.00176457
  13        -0.00312031
  14         0.00000000
  15         0.00000000
  16         0.00000004
  17         0.00000000
  18        -0.02436402
  19         0.00000000
  20         0.00000000
  21         0.00000097
  22         0.00000000
  23         0.11042106
  24        -0.22902673
  25        -0.04325906
  26         0.00000000
  27         0.00000000
  28        -0.22318505
  29         0.00000000
  30         0.00000000
  31         0.04504453
  32         0.21407438
  33        -0.46488363
  34        -0.35863704
  35         0.00000000
  36         0.00000000
  37         0.19072149
  38         0.00000000
  39         0.00000000
  40        -0.00760524
Sym=     8a  
Ene=    -0.7381
Spin= Alpha
Occup=    2.00000
   1         0.03741366
   2        -0.07956283
   3         0.03613847
   4         0.00000000
   5         0.00000000
   6         0.07295878
   7         0.00000000
   8         0.00000000
   9        -0.05525793
  10         0.00000000
  11         0.00000000
  12         0.02796506
  13        -0.04892305
  14         0.00000000
  15         0.00000000
  16         0.00000105
  17         0.00000000
  18        -0.04371390
  19         0.00000000
  20         0.00000000
  21         0.00000426
  22         0.00000000
  23         0.17013253
  24        -0.41885531
  25        -0.22674034
  26         0.00000000
  27         0.00000000
  28        -0.00312995
  29         0.00000000
  30         0.00000000
  31         0.05296053
  32        -0.11644819
  33         0.25987087
  34         0.35809007
  35         0.00000000
  36         0.00000000
  37         0.42790555
  38         0.00000000
  39         0.00000000
  40         0.12809683
Sym=     9a  
Ene=    -0.5739
Spin= Alpha
Occup=    2.00000
   1        -0.05025575
   2         0.16940134
   3        -0.01589108
   4         0.00000000
   5         0.00000000
   6        -0.13528999
   7         0.00000000
   8         0.00000000
   9         0.08599924
  10         0.00000000
  11         0.00000000
  12        -0.01506060
  13         0.10353540
  14         0.00000000
  15         0.00000000
  16        -0.00000433
  17         0.00000000
  18         0.04511140
  19         0.00000000
  20         0.00000000
  21        -0.00000803
  22         0.00000000
  23        -0.09618649
  24         0.19681995
  25         0.31438335
  26         0.00000000
  27         0.00000000
  28        -0.56581783
  29         0.00000000
  30         0.00000000
  31         0.03897071
  32        -0.02332904
  33         0.05222283
  34         0.10520400
  35         0.00000000
  36         0.00000000
  37         0.42466748
  38         0.00000000
  39         0.00000000
  40         0.12136731
Sym=    10a  
Ene=    -0.5633
Spin= Alpha
Occup=    2.00000
   1         0.00000000
   2         0.00000000
   3         0.00000000
   4         0.00000000
   5        -0.01973297
   6         0.00000000
   7         0.00000000
   8        -0.00410740
   9         0.00000000
  10         0.00000000
  11         0.00673688
  12         0.00000000
  13         0.00000000
  14         0.00000000
  15         0.11033415
  16         0.00000000
  17         0.00000000
  18         0.00000000
  19         0.00000000
  20         0.02997551
  21         0.00000000
  22         0.00000000
  23         0.00000000
  24         0.00000000
  25         0.00000000
  26         0.00000000
  27         0.35662134
  28         0.00000000
  29         0.00000000
  30         0.08873815
  31         0.00000000
  32         0.00000000
  33         0.00000000
  34         0.00000000
  35         0.00000000
  36         0.60712321
  37         0.00000000
  38         0.00000000
  39         0.27630057
  40         0.00000000
Sym=    11a  
Ene=    -0.5633
Spin= Alpha
Occup=    2.00000
   1         0.00000000
   2         0.00000000
   3         0.00000000
   4        -0.01973388
   5         0.00000000
   6         0.00000000
   7        -0.00413053
   8         0.00000000
   9         0.00000000
  10         0.00674655
  11         0.00000000
  12         0.00000000
  13         0.00000000
  14         0.11035529
  15         0.00000000
  16         0.00000000
  17         0.00000000
  18         0.00000000
  19         0.02996880
  20         0.00000000
  21         0.00000000
  22         0.00000000
  23         0.00000000
  24         0.00000000
  25         0.00000000
  26         0.35662502
  27         0.00000000
  28         0.00000000
  29         0.08878146
  30         0.00000000
  31         0.00000000
  32         0.00000000
  33         0.00000000
  34         0.00000000
  35         0.60712075
  36         0.00000000
  37         0.00000000
  38         0.27627006
  39         0.00000000
  40         0.00000000
Sym=    12a  
Ene=    -0.3019
Spin= Alpha
Occup=    2.00000
   1         0.00000000
   2         0.00000000
   3         0.00000000
   4        -0.01390467
   5         0.00000000
   6         0.00000000
   7         0.04410275
   8         0.00000000
   9         0.00000000
  10        -0.01948976
  11         0.00000000
  12         0.00000000
  13         0.00000000
  14         0.74438544
  15         0.00000000
  16         0.00000000
  17         0.00000000
  18         0.00000000
  19         0.35680715
  20         0.00000000
  21         0.00000000
  22         0.00000000
  23         0.00000000
  24         0.00000000
  25         0.00000000
  26         0.14191586
  27         0.00000000
  28         0.00000000
  29         0.06570542
  30         0.00000000
  31         0.00000000
  32         0.00000000
  33         0.00000000
  34         0.00000000
  35        -0.23372008
  36         0.00000000
  37         0.00000000
  38        -0.16223691
  39         0.00000000
  40         0.00000000
Sym=    13a  
Ene=    -0.3019
Spin= Alpha
Occup=    2.00000
   1         0.00000000
   2         0.00000000
   3         0.00000000
   4         0.00000000
   5         0.01391922
   6         0.00000000
   7         0.00000000
   8        -0.04410350
   9         0.00000000
  10         0.00000000
  11         0.01947578
  12         0.00000000
  13         0.00000000
  14         0.00000000
  15        -0.74429960
  16         0.00000000
  17         0.00000000
  18         0.00000000
  19         0.00000000
  20        -0.35679760
  21         0.00000000
  22         0.00000000
  23         0.00000000
  24         0.00000000
  25         0.00000000
  26         0.00000000
  27        -0.14202969
  28         0.00000000
  29         0.00000000
  30        -0.06583666
  31         0.00000000
  32         0.00000000
  33         0.00000000
  34         0.00000000
  35         0.00000000
  36         0.23377836
  37         0.00000000
  38         0.00000000
  39         0.16231160
  40         0.00000000
Sym=    14a  
Ene=    -0.2782
Spin= Alpha
Occup=    2.00000
   1         0.00000538
   2         0.00000303
   3        -0.00002013
   4         0.00000000
   5         0.00000000
   6         0.00000233
   7         0.00000000
   8         0.00000000
   9         0.00001200
  10         0.00000000
  11         0.00000000
  12         0.00000206
  13         0.00001022
  14         0.00000000
  15         0.00000000
  16        -0.82891578
  17         0.00000000
  18         0.00004141
  19         0.00000000
  20         0.00000000
  21        -0.36710614
  22         0.00000000
  23         0.00000095
  24        -0.00000480
  25        -0.00004618
  26         0.00000000
  27         0.00000000
  28         0.00000713
  29         0.00000000
  30         0.00000000
  31        -0.00001399
  32        -0.00000116
  33        -0.00000307
  34         0.00002808
  35         0.00000000
  36         0.00000000
  37        -0.00000437
  38         0.00000000
  39         0.00000000
  40        -0.00000792
Sym=    15a  
Ene=    -0.2782
Spin= Alpha
Occup=    2.00000
   1         0.00000000
   2         0.00000000
   3         0.00000000
   4         0.00000000
   5         0.00000000
   6         0.00000000
   7         0.00000000
   8         0.00000000
   9         0.00000000
  10         0.00000000
  11         0.00000000
  12         0.00000000
  13         0.00000000
  14         0.00000000
  15         0.00000000
  16         0.00000000
  17         0.82891535
  18         0.00000000
  19         0.00000000
  20         0.00000000
  21         0.00000000
  22         0.36710680
  23         0.00000000
  24         0.00000000
  25         0.00000000
  26         0.00000000
  27         0.00000000
  28         0.00000000
  29         0.00000000
  30         0.00000000
  31         0.00000000
  32         0.00000000
  33         0.00000000
  34         0.00000000
  35         0.00000000
  36         0.00000000
  37         0.00000000
  38         0.00000000
  39         0.00000000
  40         0.00000000
Sym=    16a  
Ene=     0.0129
Spin= Alpha
Occup=    0.00000
   1         0.02197396
   2        -0.18274687
   3        -0.80958414
   4         0.00000000
   5         0.00000000
   6        -0.08086456
   7         0.00000000
   8         0.00000000
   9        -0.05181259
  10         0.00000000
  11         0.00000000
  12         0.63055538
  13         0.02425226
  14         0.00000000
  15         0.00000000
  16         0.00001795
  17         0.00000000
  18        -0.04101557
  19         0.00000000
  20         0.00000000
  21         0.00000586
  22         0.00000000
  23        -0.02279731
  24         0.02250007
  25         0.24433443
  26         0.00000000
  27         0.00000000
  28        -0.05061221
  29         0.00000000
  30         0.00000000
  31        -0.26357161
  32         0.00418418
  33        -0.02831672
  34         0.06695284
  35         0.00000000
  36         0.00000000
  37         0.01818057
  38         0.00000000
  39         0.00000000
  40        -0.00897268
Sym=    17a  
Ene=     0.0402
Spin= Alpha
Occup=    0.00000
   1         0.00000000
   2         0.00000000
   3         0.00000000
   4         0.00000000
   5        -0.04988969
   6         0.00000000
   7         0.00000000
   8         0.02092627
   9         0.00000000
  10         0.00000000
  11         0.98120784
  12         0.00000000
  13         0.00000000
  14         0.00000000
  15        -0.06848057
  16         0.00000000
  17         0.00000000
  18         0.00000000
  19         0.00000000
  20        -0.02883036
  21         0.00000000
  22         0.00000000
  23         0.00000000
  24         0.00000000
  25         0.00000000
  26         0.00000000
  27         0.07586408
  28         0.00000000
  29         0.00000000
  30        -0.00465581
  31         0.00000000
  32         0.00000000
  33         0.00000000
  34         0.00000000
  35         0.00000000
  36        -0.10107103
  37         0.00000000
  38         0.00000000
  39        -0.08862897
  40         0.00000000
Sym=    18a  
Ene=     0.0402
Spin= Alpha
Occup=    0.00000
   1         0.00000000
   2         0.00000000
   3         0.00000000
   4         0.04989852
   5         0.00000000
   6         0.00000000
   7        -0.02102628
   8         0.00000000
   9         0.00000000
  10        -0.98117961
  11         0.00000000
  12         0.00000000
  13         0.00000000
  14         0.06840552
  15         0.00000000
  16         0.00000000
  17         0.00000000
  18         0.00000000
  19         0.02877703
  20         0.00000000
  21         0.00000000
  22         0.00000000
  23         0.00000000
  24         0.00000000
  25         0.00000000
  26        -0.07584938
  27         0.00000000
  28         0.00000000
  29         0.00474864
  30         0.00000000
  31         0.00000000
  32         0.00000000
  33         0.00000000
  34         0.00000000
  35         0.10108667
  36         0.00000000
  37         0.00000000
  38         0.08858882
  39         0.00000000
  40         0.00000000
Sym=    19a  
Ene=     0.0801
Spin= Alpha
Occup=    0.00000
   1        -0.04072624
   2         0.13459789
   3         0.64717849
   4         0.00000000
   5         0.00000000
   6         0.05977123
   7         0.00000000
   8         0.00000000
   9        -0.25346886
  10         0.00000000
  11         0.00000000
  12         1.03859768
  13        -0.09043471
  14         0.00000000
  15         0.00000000
  16        -0.00001751
  17         0.00000000
  18        -0.02779402
  19         0.00000000
  20         0.00000000
  21        -0.00000488
  22         0.00000000
  23         0.03436068
  24        -0.03923148
  25        -0.47471512
  26         0.00000000
  27         0.00000000
  28         0.08320902
  29         0.00000000
  30         0.00000000
  31         0.01187143
  32         0.01781833
  33        -0.04122903
  34        -0.07850985
  35         0.00000000
  36         0.00000000
  37        -0.03056755
  38         0.00000000
  39         0.00000000
  40        -0.13183717
Sym=    20a  
Ene=     0.1284
Spin= Alpha
Occup=    0.00000
   1         0.00000000
   2         0.00000000
   3         0.00000000
   4         0.15080163
   5         0.00000000
   6         0.00000000
   7        -0.83148682
   8         0.00000000
   9         0.00000000
  10         0.74270104
  11         0.00000000
  12         0.00000000
  13         0.00000000
  14         0.26122334
  15         0.00000000
  16         0.00000000
  17         0.00000000
  18         0.00000000
  19         0.12425721
  20         0.00000000
  21         0.00000000
  22         0.00000000
  23         0.00000000
  24         0.00000000
  25         0.00000000
  26        -0.38530492
  27         0.00000000
  28         0.00000000
  29        -0.31792815
  30         0.00000000
  31         0.00000000
  32         0.00000000
  33         0.00000000
  34         0.00000000
  35         0.25292647
  36         0.00000000
  37         0.00000000
  38         0.25028507
  39         0.00000000
  40         0.00000000
Sym=    21a  
Ene=     0.1284
Spin= Alpha
Occup=    0.00000
   1         0.00000000
   2         0.00000000
   3         0.00000000
   4         0.00000000
   5         0.15074562
   6         0.00000000
   7         0.00000000
   8        -0.83091052
   9         0.00000000
  10         0.00000000
  11         0.74251647
  12         0.00000000
  13         0.00000000
  14         0.00000000
  15         0.26142399
  16         0.00000000
  17         0.00000000
  18         0.00000000
  19         0.00000000
  20         0.12442185
  21         0.00000000
  22         0.00000000
  23         0.00000000
  24         0.00000000
  25         0.00000000
  26         0.00000000
  27        -0.38542257
  28         0.00000000
  29         0.00000000
  30        -0.31836628
  31         0.00000000
  32         0.00000000
  33         0.00000000
  34         0.00000000
  35         0.00000000
  36         0.25300852
  37         0.00000000
  38         0.00000000
  39         0.25042801
  40         0.00000000
Sym=    22a  
Ene=     0.1668
Spin= Alpha
Occup=    0.00000
   1        -0.00923026
   2        -0.26103894
   3         0.96094552
   4         0.00000000
   5         0.00000000
   6        -0.10241297
   7         0.00000000
   8         0.00000000
   9         1.65502360
  10         0.00000000
  11         0.00000000
  12        -0.66786959
  13        -0.18033604
  14         0.00000000
  15         0.00000000
  16        -0.00002517
  17         0.00000000
  18        -0.05600321
  19         0.00000000
  20         0.00000000
  21         0.00000608
  22         0.00000000
  23         0.02553969
  24         0.05144556
  25        -0.95486541
  26         0.00000000
  27         0.00000000
  28         0.03379629
  29         0.00000000
  30         0.00000000
  31         0.44402024
  32         0.01461559
  33        -0.02427657
  34        -0.14572678
  35         0.00000000
  36         0.00000000
  37         0.03959573
  38         0.00000000
  39         0.00000000
  40        -0.03133017
Sym=    23a  
Ene=     0.2461
Spin= Alpha
Occup=    0.00000
   1         0.00000000
   2         0.00000000
   3         0.00000000
   4        -0.10961133
   5         0.00000000
   6         0.00000000
   7         1.29451276
   8         0.00000000
   9         0.00000000
  10        -0.46869621
  11         0.00000000
  12         0.00000000
  13         0.00000000
  14         0.27773731
  15         0.00000000
  16         0.00000000
  17         0.00000000
  18         0.00000000
  19         0.13081757
  20         0.00000000
  21         0.00000000
  22         0.00000000
  23         0.00000000
  24         0.00000000
  25         0.00000000
  26        -0.41312308
  27         0.00000000
  28         0.00000000
  29        -0.87474918
  30         0.00000000
  31         0.00000000
  32         0.00000000
  33         0.00000000
  34         0.00000000
  35         0.26828873
  36         0.00000000
  37         0.00000000
  38         0.39452917
  39         0.00000000
  40         0.00000000
Sym=    24a  
Ene=     0.2462
Spin= Alpha
Occup=    0.00000
   1         0.00000000
   2         0.00000000
   3         0.00000000
   4         0.00000000
   5         0.10966873
   6         0.00000000
   7         0.00000000
   8        -1.29487763
   9         0.00000000
  10         0.00000000
  11         0.46893719
  12         0.00000000
  13         0.00000000
  14         0.00000000
  15        -0.27769207
  16         0.00000000
  17         0.00000000
  18         0.00000000
  19         0.00000000
  20        -0.13082495
  21         0.00000000
  22         0.00000000
  23         0.00000000
  24         0.00000000
  25         0.00000000
  26         0.00000000
  27         0.41293753
  28         0.00000000
  29         0.00000000
  30         0.87464792
  31         0.00000000
  32         0.00000000
  33         0.00000000
  34         0.00000000
  35         0.00000000
  36        -0.26814377
  37         0.00000000
  38         0.00000000
  39        -0.39441030
  40         0.00000000
Sym=    25a  
Ene=     0.2831
Spin= Alpha
Occup=    0.00000
   1         0.08585545
   2         0.59909686
   3        -0.89000676
   4         0.00000000
   5         0.00000000
   6        -0.07316760
   7         0.00000000
   8         0.00000000
   9        -0.15574442
  10         0.00000000
  11         0.00000000
  12        -0.04267353
  13        -0.42888959
  14         0.00000000
  15         0.00000000
  16        -0.00002237
  17         0.00000000
  18        -0.44315774
  19         0.00000000
  20         0.00000000
  21        -0.00000230
  22         0.00000000
  23         0.01073604
  24        -0.05953352
  25         0.27301598
  26         0.00000000
  27         0.00000000
  28         0.03664915
  29         0.00000000
  30         0.00000000
  31        -0.75447416
  32        -0.03155493
  33         0.03133416
  34         0.45516960
  35         0.00000000
  36         0.00000000
  37         0.00910661
  38         0.00000000
  39         0.00000000
  40         0.01108762
Sym=    26a  
Ene=     0.4186
Spin= Alpha
Occup=    0.00000
   1         0.03751477
   2         0.34501846
   3         0.38915833
   4         0.00000000
   5         0.00000000
   6        -0.03134432
   7         0.00000000
   8         0.00000000
   9         1.11237103
  10         0.00000000
  11         0.00000000
  12        -0.04428664
  13         0.45494563
  14         0.00000000
  15         0.00000000
  16         0.00003776
  17         0.00000000
  18         0.48550857
  19         0.00000000
  20         0.00000000
  21        -0.00003155
  22         0.00000000
  23         0.07490018
  24         0.01430949
  25        -2.54951044
  26         0.00000000
  27         0.00000000
  28        -0.08590344
  29         0.00000000
  30         0.00000000
  31        -0.87826826
  32        -0.08966928
  33         0.11814682
  34         1.32463881
  35         0.00000000
  36         0.00000000
  37        -0.13659798
  38         0.00000000
  39         0.00000000
  40        -0.61060638
Sym=    27a  
Ene=     0.5335
Spin= Alpha
Occup=    0.00000
   1         0.00000000
   2         0.00000000
   3         0.00000000
   4        -0.02411894
   5         0.00000000
   6         0.00000000
   7        -0.41787899
   8         0.00000000
   9         0.00000000
  10        -0.12018529
  11         0.00000000
  12         0.00000000
  13         0.00000000
  14         0.03124548
  15         0.00000000
  16         0.00000000
  17         0.00000000
  18         0.00000000
  19        -0.14399865
  20         0.00000000
  21         0.00000000
  22         0.00000000
  23         0.00000000
  24         0.00000000
  25         0.00000000
  26        -0.97609956
  27         0.00000000
  28         0.00000000
  29         1.47023522
  30         0.00000000
  31         0.00000000
  32         0.00000000
  33         0.00000000
  34         0.00000000
  35        -0.03860582
  36         0.00000000
  37         0.00000000
  38        -0.12646116
  39         0.00000000
  40         0.00000000
Sym=    28a  
Ene=     0.5335
Spin= Alpha
Occup=    0.00000
   1         0.00000000
   2         0.00000000
   3         0.00000000
   4         0.00000000
   5        -0.02411322
   6         0.00000000
   7         0.00000000
   8        -0.41794552
   9         0.00000000
  10         0.00000000
  11        -0.12015797
  12         0.00000000
  13         0.00000000
  14         0.00000000
  15         0.03124946
  16         0.00000000
  17         0.00000000
  18         0.00000000
  19         0.00000000
  20        -0.14399509
  21         0.00000000
  22         0.00000000
  23         0.00000000
  24         0.00000000
  25         0.00000000
  26         0.00000000
  27        -0.97613178
  28         0.00000000
  29         0.00000000
  30         1.47032626
  31         0.00000000
  32         0.00000000
  33         0.00000000
  34         0.00000000
  35         0.00000000
  36        -0.03846444
  37         0.00000000
  38         0.00000000
  39        -0.12663293
  40         0.00000000
Sym=    29a  
Ene=     0.7538
Spin= Alpha
Occup=    0.00000
   1        -0.22129615
   2        -0.60530136
   3         0.77789574
   4         0.00000000
   5         0.00000000
   6         0.02173823
   7         0.00000000
   8         0.00000000
   9        -0.04844063
  10         0.00000000
  11         0.00000000
  12         0.30770784
  13        -0.49707854
  14         0.00000000
  15         0.00000000
  16        -0.00001927
  17         0.00000000
  18         0.11764596
  19         0.00000000
  20         0.00000000
  21         0.00003279
  22         0.00000000
  23        -0.05835311
  24         0.67330760
  25        -1.97861116
  26         0.00000000
  27         0.00000000
  28        -0.77575487
  29         0.00000000
  30         0.00000000
  31        -0.19805619
  32        -0.06780233
  33         0.14745400
  34         0.93542312
  35         0.00000000
  36         0.00000000
  37         0.14106200
  38         0.00000000
  39         0.00000000
  40        -1.02825920
Sym=    30a  
Ene=     0.8336
Spin= Alpha
Occup=    0.00000
   1        -0.00002585
   2        -0.00004476
   3        -0.00003259
   4         0.00000000
   5         0.00000000
   6        -0.00000389
   7         0.00000000
   8         0.00000000
   9        -0.00011924
  10         0.00000000
  11         0.00000000
  12         0.00002637
  13         0.00012655
  14         0.00000000
  15         0.00000000
  16        -0.63764660
  17         0.00000000
  18        -0.00017610
  19         0.00000000
  20         0.00000000
  21         0.97924850
  22         0.00000000
  23         0.00000315
  24         0.00001927
  25         0.00012152
  26         0.00000000
  27         0.00000000
  28        -0.00009228
  29         0.00000000
  30         0.00000000
  31         0.00002015
  32        -0.00000320
  33         0.00001887
  34        -0.00000899
  35         0.00000000
  36         0.00000000
  37        -0.00002954
  38         0.00000000
  39         0.00000000
  40        -0.00001601
Sym=    31a  
Ene=     0.8336
Spin= Alpha
Occup=    0.00000
   1         0.00000000
   2         0.00000000
   3         0.00000000
   4         0.00000000
   5         0.00000000
   6         0.00000000
   7         0.00000000
   8         0.00000000
   9         0.00000000
  10         0.00000000
  11         0.00000000
  12         0.00000000
  13         0.00000000
  14         0.00000000
  15         0.00000000
  16         0.00000000
  17        -0.63764717
  18         0.00000000
  19         0.00000000
  20         0.00000000
  21         0.00000000
  22         0.97924827
  23         0.00000000
  24         0.00000000
  25         0.00000000
  26         0.00000000
  27         0.00000000
  28         0.00000000
  29         0.00000000
  30         0.00000000
  31         0.00000000
  32         0.00000000
  33         0.00000000
  34         0.00000000
  35         0.00000000
  36         0.00000000
  37         0.00000000
  38         0.00000000
  39         0.00000000
  40         0.00000000
Sym=    32a  
Ene=     0.8925
Spin= Alpha
Occup=    0.00000
   1        -0.11625720
   2        -0.22310533
   3         0.42492835
   4         0.00000000
   5         0.00000000
   6         0.00200159
   7         0.00000000
   8         0.00000000
   9         0.32299961
  10         0.00000000
  11         0.00000000
  12        -0.02455963
  13        -0.04494469
  14         0.00000000
  15         0.00000000
  16        -0.00000470
  17         0.00000000
  18         0.05509428
  19         0.00000000
  20         0.00000000
  21         0.00000939
  22         0.00000000
  23        -0.04052370
  24         1.43631553
  25        -0.91368749
  26         0.00000000
  27         0.00000000
  28         0.35212075
  29         0.00000000
  30         0.00000000
  31        -0.30725376
  32         0.03555346
  33        -0.02009920
  34        -0.14952976
  35         0.00000000
  36         0.00000000
  37        -0.33126416
  38         0.00000000
  39         0.00000000
  40         1.26139526
Sym=    33a  
Ene=     0.9117
Spin= Alpha
Occup=    0.00000
   1         0.00000000
   2         0.00000000
   3         0.00000000
   4         0.01330727
   5         0.00000000
   6         0.00000000
   7        -0.18567139
   8         0.00000000
   9         0.00000000
  10        -0.00492507
  11         0.00000000
  12         0.00000000
  13         0.00000000
  14         0.53776372
  15         0.00000000
  16         0.00000000
  17         0.00000000
  18         0.00000000
  19        -0.93214767
  20         0.00000000
  21         0.00000000
  22         0.00000000
  23         0.00000000
  24         0.00000000
  25         0.00000000
  26         0.21822396
  27         0.00000000
  28         0.00000000
  29         0.13281569
  30         0.00000000
  31         0.00000000
  32         0.00000000
  33         0.00000000
  34         0.00000000
  35        -0.50321918
  36         0.00000000
  37         0.00000000
  38         0.49757466
  39         0.00000000
  40         0.00000000
Sym=    34a  
Ene=     0.9117
Spin= Alpha
Occup=    0.00000
   1         0.00000000
   2         0.00000000
   3         0.00000000
   4         0.00000000
   5        -0.01330942
   6         0.00000000
   7         0.00000000
   8         0.18570237
   9         0.00000000
  10         0.00000000
  11         0.00491451
  12         0.00000000
  13         0.00000000
  14         0.00000000
  15        -0.53778416
  16         0.00000000
  17         0.00000000
  18         0.00000000
  19         0.00000000
  20         0.93212099
  21         0.00000000
  22         0.00000000
  23         0.00000000
  24         0.00000000
  25         0.00000000
  26         0.00000000
  27        -0.21812304
  28         0.00000000
  29         0.00000000
  30        -0.13287593
  31         0.00000000
  32         0.00000000
  33         0.00000000
  34         0.00000000
  35         0.00000000
  36         0.50323592
  37         0.00000000
  38         0.00000000
  39        -0.49762364
  40         0.00000000
Sym=    35a  
Ene=     1.0200
Spin= Alpha
Occup=    0.00000
   1         0.01668757
   2        -0.02349876
   3        -0.15964515
   4         0.00000000
   5         0.00000000
   6        -0.06621310
   7         0.00000000
   8         0.00000000
   9        -0.30466357
  10         0.00000000
  11         0.00000000
  12        -0.04957665
  13         0.03752629
  14         0.00000000
  15         0.00000000
  16         0.00003382
  17         0.00000000
  18        -0.42780530
  19         0.00000000
  20         0.00000000
  21        -0.00005858
  22         0.00000000
  23         0.08959041
  24        -0.53885042
  25         0.73454674
  26         0.00000000
  27         0.00000000
  28        -1.07467140
  29         0.00000000
  30         0.00000000
  31         0.53230781
  32        -0.03885881
  33         0.16475086
  34         0.03004651
  35         0.00000000
  36         0.00000000
  37        -0.92838909
  38         0.00000000
  39         0.00000000
  40         0.27893271
Sym=    36a  
Ene=     1.0981
Spin= Alpha
Occup=    0.00000
   1         0.00000000
   2         0.00000000
   3         0.00000000
   4         0.00000000
   5         0.00420000
   6         0.00000000
   7         0.00000000
   8         0.63558925
   9         0.00000000
  10         0.00000000
  11        -0.10676115
  12         0.00000000
  13         0.00000000
  14         0.00000000
  15        -0.32694684
  16         0.00000000
  17         0.00000000
  18         0.00000000
  19         0.00000000
  20         0.80425638
  21         0.00000000
  22         0.00000000
  23         0.00000000
  24         0.00000000
  25         0.00000000
  26         0.00000000
  27        -0.05861378
  28         0.00000000
  29         0.00000000
  30        -1.25517959
  31         0.00000000
  32         0.00000000
  33         0.00000000
  34         0.00000000
  35         0.00000000
  36        -0.77353530
  37         0.00000000
  38         0.00000000
  39         1.47924825
  40         0.00000000
Sym=    37a  
Ene=     1.0981
Spin= Alpha
Occup=    0.00000
   1         0.00000000
   2         0.00000000
   3         0.00000000
   4         0.00420471
   5         0.00000000
   6         0.00000000
   7         0.63562759
   8         0.00000000
   9         0.00000000
  10        -0.10675988
  11         0.00000000
  12         0.00000000
  13         0.00000000
  14        -0.32691595
  15         0.00000000
  16         0.00000000
  17         0.00000000
  18         0.00000000
  19         0.80424940
  20         0.00000000
  21         0.00000000
  22         0.00000000
  23         0.00000000
  24         0.00000000
  25         0.00000000
  26        -0.05851323
  27         0.00000000
  28         0.00000000
  29        -1.25533655
  30         0.00000000
  31         0.00000000
  32         0.00000000
  33         0.00000000
  34         0.00000000
  35        -0.77353321
  36         0.00000000
  37         0.00000000
  38         1.47928821
  39         0.00000000
  40         0.00000000
Sym=    38a  
Ene=     1.1225
Spin= Alpha
Occup=    0.00000
   1        -0.12108341
   2        -0.37440498
   3        -0.02124020
   4         0.00000000
   5         0.00000000
   6         0.02116160
   7         0.00000000
   8         0.00000000
   9        -0.75837855
  10         0.00000000
  11         0.00000000
  12         0.20392913
  13         0.64620654
  14         0.00000000
  15         0.00000000
  16         0.00006913
  17         0.00000000
  18        -1.25610367
  19         0.00000000
  20         0.00000000
  21        -0.00013089
  22         0.00000000
  23        -0.04582303
  24         0.69758169
  25         0.24254903
  26         0.00000000
  27         0.00000000
  28        -0.39287906
  29         0.00000000
  30         0.00000000
  31         0.21154953
  32         0.01416335
  33        -0.10578377
  34         0.04829236
  35         0.00000000
  36         0.00000000
  37         0.24775885
  38         0.00000000
  39         0.00000000
  40        -0.36574251
Sym=    39a  
Ene=     1.9342
Spin= Alpha
Occup=    0.00000
   1        -0.47006046
   2        -0.86515536
   3         0.01649103
   4         0.00000000
   5         0.00000000
   6        -0.05367516
   7         0.00000000
   8         0.00000000
   9        -0.96673959
  10         0.00000000
  11         0.00000000
  12         0.17822838
  13         0.10017411
  14         0.00000000
  15         0.00000000
  16         0.00000569
  17         0.00000000
  18        -0.45185529
  19         0.00000000
  20         0.00000000
  21        -0.00001534
  22         0.00000000
  23         0.02200614
  24        -0.08930055
  25         3.06021867
  26         0.00000000
  27         0.00000000
  28         0.35424343
  29         0.00000000
  30         0.00000000
  31         0.33943959
  32        -0.09134667
  33         1.91941071
  34        -3.42202854
  35         0.00000000
  36         0.00000000
  37         0.00331482
  38         0.00000000
  39         0.00000000
  40         1.02787171
Sym=    40a  
Ene=     4.0785
Spin= Alpha
Occup=    0.00000
   1         2.54094258
   2         3.81290359
   3        -0.89982904
   4         0.00000000
   5         0.00000000
   6         0.22724409
   7         0.00000000
   8         0.00000000
   9         2.31892127
  10         0.00000000
  11         0.00000000
  12        -0.87459016
  13        -0.04253805
  14         0.00000000
  15         0.00000000
  16        -0.00000180
  17         0.00000000
  18         0.40571702
  19         0.00000000
  20         0.00000000
  21         0.00000538
  22         0.00000000
  23         0.01867987
  24         1.01251948
  25        -2.78728229
  26         0.00000000
  27         0.00000000
  28        -0.05237180
  29         0.00000000
  30         0.00000000
  31         3.36199058
  32        -0.00745525
  33         0.86702815
  34        -2.21965996
  35         0.00000000
  36         0.00000000
  37         0.09470298
  38         0.00000000
  39         0.00000000
  40        -0.05915473
