[Molden Format]
[N_Atoms]
                    6
[Atoms] (AU)
C1          1      6           0.00000000      0.00000000      1.26517164
C2          2      6           0.00000000      0.00000000     -1.26517164
H3          3      1           0.00000000      1.74535105      2.32833156
H4          4      1           0.00000000     -1.74535105      2.32833156
H5          5      1           0.00000000      1.74535105     -2.32833156
H6          6      1           0.00000000     -1.74535105     -2.32833156
[5D]
[Charge] (Mulliken)
   0.0000000000000000     
   0.0000000000000000     
   0.0000000000000000     
   0.0000000000000000     
   0.0000000000000000     
   0.0000000000000000     
[GTO] (AU)
   1
   s   5
  1.238401694E+03  5.517365048E-03
  1.862900499E+02  4.108882856E-02
  4.225117635E+01  1.822538213E-01
  1.167655793E+01  4.682845944E-01
  3.593050648E+00  4.457581734E-01
   s   1
  4.024514736E-01  1.000000000E+00
   s   1
  1.309018267E-01  1.000000000E+00
   p   3
  9.468097062E+00  5.688833201E-02
  2.010354514E+00  3.129405934E-01
  5.477100471E-01  7.606501651E-01
   p   1
  1.526861379E-01  1.000000000E+00
   d   1
  8.000000000E-01  1.000000000E+00
 
   2
   s   5
  1.238401694E+03  5.517365048E-03
  1.862900499E+02  4.108882856E-02
  4.225117635E+01  1.822538213E-01
  1.167655793E+01  4.682845944E-01
  3.593050648E+00  4.457581734E-01
   s   1
  4.024514736E-01  1.000000000E+00
   s   1
  1.309018267E-01  1.000000000E+00
   p   3
  9.468097062E+00  5.688833201E-02
  2.010354514E+00  3.129405934E-01
  5.477100471E-01  7.606501651E-01
   p   1
  1.526861379E-01  1.000000000E+00
   d   1
  8.000000000E-01  1.000000000E+00
 
   3
   s   3
  1.301070100E+01  3.348548481E-02
  1.962257200E+00  2.347218709E-01
  4.445379600E-01  8.137702853E-01
   s   1
  1.219496200E-01  1.000000000E+00
   p   1
  8.000000000E-01  1.000000000E+00
 
   4
   s   3
  1.301070100E+01  3.348548481E-02
  1.962257200E+00  2.347218709E-01
  4.445379600E-01  8.137702853E-01
   s   1
  1.219496200E-01  1.000000000E+00
   p   1
  8.000000000E-01  1.000000000E+00
 
   5
   s   3
  1.301070100E+01  3.348548481E-02
  1.962257200E+00  2.347218709E-01
  4.445379600E-01  8.137702853E-01
   s   1
  1.219496200E-01  1.000000000E+00
   p   1
  8.000000000E-01  1.000000000E+00
 
   6
   s   3
  1.301070100E+01  3.348548481E-02
  1.962257200E+00  2.347218709E-01
  4.445379600E-01  8.137702853E-01
   s   1
  1.219496200E-01  1.000000000E+00
   p   1
  8.000000000E-01  1.000000000E+00
 
[MO]
Sym=     1a  
Ene=   -11.3520
Spin= Alpha
Occup=    2.00000
   1         0.69927624
   2         0.02064786
   3        -0.00278847
   4        -0.00000000
   5        -0.00000000
   6        -0.00190322
   7        -0.00000000
   8        -0.00000000
   9        -0.00110765
  10        -0.00000000
  11         0.00000000
  12        -0.00000000
  13         0.00000000
  14         0.00000000
  15         0.69927624
  16         0.02064786
  17        -0.00278847
  18         0.00000000
  19        -0.00000000
  20         0.00190322
  21         0.00000000
  22         0.00000000
  23         0.00110765
  24         0.00000000
  25        -0.00000000
  26         0.00000000
  27        -0.00000000
  28        -0.00000000
  29         0.00204969
  30         0.00124107
  31        -0.00000000
  32        -0.00000000
  33        -0.00000000
  34         0.00204969
  35         0.00124107
  36        -0.00000000
  37         0.00000000
  38         0.00000000
  39         0.00204969
  40         0.00124107
  41         0.00000000
  42        -0.00000000
  43         0.00000000
  44         0.00204969
  45         0.00124107
  46         0.00000000
  47        -0.00000000
  48        -0.00000000
Sym=     2a  
Ene=   -11.3270
Spin= Alpha
Occup=    2.00000
   1        -0.70181819
   2        -0.01698668
   3         0.00464612
   4         0.00000000
   5         0.00000000
   6        -0.00187761
   7         0.00000000
   8         0.00000000
   9        -0.00109274
  10        -0.00000000
  11         0.00000000
  12         0.00000000
  13        -0.00000000
  14         0.00000000
  15         0.70181819
  16         0.01698668
  17        -0.00464612
  18         0.00000000
  19         0.00000000
  20        -0.00187761
  21        -0.00000000
  22        -0.00000000
  23        -0.00109274
  24        -0.00000000
  25         0.00000000
  26         0.00000000
  27        -0.00000000
  28         0.00000000
  29        -0.00153850
  30        -0.00093155
  31         0.00000000
  32        -0.00000000
  33         0.00000000
  34        -0.00153850
  35        -0.00093155
  36         0.00000000
  37         0.00000000
  38        -0.00000000
  39         0.00153850
  40         0.00093155
  41        -0.00000000
  42        -0.00000000
  43        -0.00000000
  44         0.00153850
  45         0.00093155
  46         0.00000000
  47         0.00000000
  48        -0.00000000
Sym=     3a  
Ene=    -1.4690
Spin= Alpha
Occup=    2.00000
   1        -0.18694980
   2         0.28435794
   3         0.14408577
   4        -0.00000000
   5         0.00000000
   6        -0.05001320
   7        -0.00000000
   8        -0.00000000
   9        -0.02910694
  10        -0.00000000
  11        -0.00000000
  12         0.00000000
  13        -0.00000000
  14         0.00000000
  15        -0.18694980
  16         0.28435794
  17         0.14408577
  18        -0.00000000
  19        -0.00000000
  20         0.05001320
  21        -0.00000000
  22         0.00000000
  23         0.02910694
  24         0.00000000
  25         0.00000000
  26        -0.00000000
  27         0.00000000
  28         0.00000000
  29         0.11124434
  30         0.06735772
  31         0.00000000
  32        -0.00000000
  33         0.00000000
  34         0.11124434
  35         0.06735772
  36        -0.00000000
  37         0.00000000
  38         0.00000000
  39         0.11124434
  40         0.06735772
  41         0.00000000
  42         0.00000000
  43        -0.00000000
  44         0.11124434
  45         0.06735772
  46         0.00000000
  47         0.00000000
  48         0.00000000
Sym=     4a  
Ene=    -1.0235
Spin= Alpha
Occup=    2.00000
   1         0.14136297
   2        -0.23700406
   3        -0.11982261
   4        -0.00000000
   5        -0.00000000
   6        -0.15895793
   7         0.00000000
   8        -0.00000000
   9        -0.09251116
  10        -0.00000000
  11        -0.00000000
  12        -0.00000000
  13        -0.00000000
  14         0.00000000
  15        -0.14136297
  16         0.23700406
  17         0.11982261
  18        -0.00000000
  19        -0.00000000
  20        -0.15895793
  21         0.00000000
  22         0.00000000
  23        -0.09251116
  24        -0.00000000
  25        -0.00000000
  26        -0.00000000
  27        -0.00000000
  28        -0.00000000
  29        -0.15905476
  30        -0.09630662
  31        -0.00000000
  32        -0.00000000
  33         0.00000000
  34        -0.15905476
  35        -0.09630662
  36         0.00000000
  37         0.00000000
  38         0.00000000
  39         0.15905476
  40         0.09630662
  41        -0.00000000
  42        -0.00000000
  43        -0.00000000
  44         0.15905476
  45         0.09630662
  46        -0.00000000
  47         0.00000000
  48        -0.00000000
Sym=     5a  
Ene=    -0.8464
Spin= Alpha
Occup=    2.00000
   1         0.00000000
   2        -0.00000000
   3         0.00000000
   4         0.00000000
   5         0.28239116
   6         0.00000000
   7         0.00000000
   8         0.16434746
   9        -0.00000000
  10        -0.00000000
  11        -0.00000000
  12         0.00000000
  13        -0.00000000
  14        -0.00000000
  15        -0.00000000
  16         0.00000000
  17        -0.00000000
  18        -0.00000000
  19         0.28239116
  20         0.00000000
  21        -0.00000000
  22         0.16434746
  23        -0.00000000
  24        -0.00000000
  25         0.00000000
  26        -0.00000000
  27         0.00000000
  28        -0.00000000
  29         0.16242408
  30         0.09834672
  31        -0.00000000
  32        -0.00000000
  33         0.00000000
  34        -0.16242408
  35        -0.09834672
  36         0.00000000
  37        -0.00000000
  38         0.00000000
  39         0.16242408
  40         0.09834672
  41        -0.00000000
  42         0.00000000
  43         0.00000000
  44        -0.16242408
  45        -0.09834672
  46        -0.00000000
  47         0.00000000
  48         0.00000000
Sym=     6a  
Ene=    -0.6046
Spin= Alpha
Occup=    2.00000
   1         0.04700264
   2        -0.06989386
   3        -0.03543515
   4         0.00000000
   5         0.00000000
   6         0.37614926
   7         0.00000000
   8         0.00000000
   9         0.21891329
  10         0.00000000
  11         0.00000000
  12         0.00000000
  13         0.00000000
  14         0.00000000
  15         0.04700264
  16        -0.06989386
  17        -0.03543515
  18         0.00000000
  19        -0.00000000
  20        -0.37614926
  21         0.00000000
  22        -0.00000000
  23        -0.21891329
  24        -0.00000000
  25        -0.00000000
  26        -0.00000000
  27        -0.00000000
  28        -0.00000000
  29         0.14192606
  30         0.08593530
  31        -0.00000000
  32         0.00000000
  33        -0.00000000
  34         0.14192606
  35         0.08593530
  36         0.00000000
  37        -0.00000000
  38        -0.00000000
  39         0.14192606
  40         0.08593530
  41        -0.00000000
  42        -0.00000000
  43        -0.00000000
  44         0.14192606
  45         0.08593530
  46        -0.00000000
  47         0.00000000
  48        -0.00000000
Sym=     7a  
Ene=    -0.5709
Spin= Alpha
Occup=    2.00000
   1         0.00000000
   2        -0.00000000
   3        -0.00000000
   4         0.44120013
   5        -0.00000000
   6        -0.00000000
   7         0.25677193
   8        -0.00000000
   9         0.00000000
  10         0.00000000
  11         0.00000000
  12        -0.00000000
  13         0.00000000
  14        -0.00000000
  15        -0.00000000
  16         0.00000000
  17         0.00000000
  18         0.44120013
  19         0.00000000
  20        -0.00000000
  21         0.25677193
  22         0.00000000
  23         0.00000000
  24        -0.00000000
  25         0.00000000
  26        -0.00000000
  27        -0.00000000
  28         0.00000000
  29        -0.00000000
  30        -0.00000000
  31        -0.00000000
  32        -0.00000000
  33        -0.00000000
  34         0.00000000
  35         0.00000000
  36        -0.00000000
  37        -0.00000000
  38        -0.00000000
  39         0.00000000
  40         0.00000000
  41        -0.00000000
  42         0.00000000
  43        -0.00000000
  44        -0.00000000
  45         0.00000000
  46        -0.00000000
  47         0.00000000
  48         0.00000000
Sym=     8a  
Ene=    -0.5553
Spin= Alpha
Occup=    2.00000
   1         0.00000000
   2        -0.00000000
   3         0.00000000
   4        -0.00000000
   5        -0.29299187
   6         0.00000000
   7        -0.00000000
   8        -0.17051692
   9        -0.00000000
  10         0.00000000
  11        -0.00000000
  12         0.00000000
  13        -0.00000000
  14         0.00000000
  15         0.00000000
  16         0.00000000
  17        -0.00000000
  18        -0.00000000
  19         0.29299187
  20        -0.00000000
  21        -0.00000000
  22         0.17051692
  23        -0.00000000
  24        -0.00000000
  25        -0.00000000
  26         0.00000000
  27        -0.00000000
  28         0.00000000
  29        -0.24184847
  30        -0.14643767
  31         0.00000000
  32         0.00000000
  33         0.00000000
  34         0.24184847
  35         0.14643767
  36        -0.00000000
  37         0.00000000
  38         0.00000000
  39         0.24184847
  40         0.14643767
  41         0.00000000
  42         0.00000000
  43         0.00000000
  44        -0.24184847
  45        -0.14643767
  46        -0.00000000
  47        -0.00000000
  48         0.00000000
Sym=     9a  
Ene=    -0.2994
Spin= Alpha
Occup=    0.00000
   1        -0.00000000
   2        -0.00000000
   3        -0.00000000
   4        -0.60925108
   5        -0.00000000
   6         0.00000000
   7        -0.35457509
   8         0.00000000
   9         0.00000000
  10         0.00000000
  11         0.00000000
  12         0.00000000
  13        -0.00000000
  14         0.00000000
  15         0.00000000
  16         0.00000000
  17         0.00000000
  18         0.60925108
  19        -0.00000000
  20         0.00000000
  21         0.35457509
  22        -0.00000000
  23         0.00000000
  24        -0.00000000
  25        -0.00000000
  26         0.00000000
  27        -0.00000000
  28         0.00000000
  29         0.00000000
  30        -0.00000000
  31        -0.00000000
  32         0.00000000
  33         0.00000000
  34        -0.00000000
  35        -0.00000000
  36         0.00000000
  37         0.00000000
  38        -0.00000000
  39         0.00000000
  40         0.00000000
  41        -0.00000000
  42        -0.00000000
  43         0.00000000
  44        -0.00000000
  45        -0.00000000
  46        -0.00000000
  47        -0.00000000
  48        -0.00000000
Sym=    10a  
Ene=    -0.1448
Spin= Alpha
Occup=    0.00000
   1         0.00000000
   2        -0.00000000
   3        -0.00000000
   4        -0.00000000
   5         0.54895846
   6        -0.00000000
   7        -0.00000000
   8         0.31948568
   9         0.00000000
  10         0.00000000
  11        -0.00000000
  12         0.00000000
  13         0.00000000
  14        -0.00000000
  15         0.00000000
  16        -0.00000000
  17         0.00000000
  18         0.00000000
  19         0.54895846
  20         0.00000000
  21         0.00000000
  22         0.31948568
  23         0.00000000
  24         0.00000000
  25        -0.00000000
  26         0.00000000
  27         0.00000000
  28        -0.00000000
  29        -0.48838667
  30        -0.29571493
  31         0.00000000
  32        -0.00000000
  33         0.00000000
  34         0.48838667
  35         0.29571493
  36         0.00000000
  37         0.00000000
  38        -0.00000000
  39        -0.48838667
  40        -0.29571493
  41         0.00000000
  42        -0.00000000
  43        -0.00000000
  44         0.48838667
  45         0.29571493
  46        -0.00000000
  47         0.00000000
  48        -0.00000000
Sym=    11a  
Ene=    -0.1345
Spin= Alpha
Occup=    0.00000
   1         0.17178277
   2        -0.68651319
   3        -0.34266346
   4         0.00000000
   5        -0.00000000
   6        -0.40332761
   7        -0.00000000
   8         0.00000000
   9        -0.23473068
  10        -0.00000000
  11        -0.00000000
  12         0.00000000
  13        -0.00000000
  14         0.00000000
  15         0.17178277
  16        -0.68651319
  17        -0.34266346
  18        -0.00000000
  19        -0.00000000
  20         0.40332761
  21         0.00000000
  22        -0.00000000
  23         0.23473068
  24         0.00000000
  25        -0.00000000
  26        -0.00000000
  27         0.00000000
  28        -0.00000000
  29         0.44361590
  30         0.26860652
  31         0.00000000
  32        -0.00000000
  33         0.00000000
  34         0.44361590
  35         0.26860652
  36        -0.00000000
  37         0.00000000
  38         0.00000000
  39         0.44361590
  40         0.26860652
  41         0.00000000
  42         0.00000000
  43         0.00000000
  44         0.44361590
  45         0.26860652
  46        -0.00000000
  47        -0.00000000
  48         0.00000000
Sym=    12a  
Ene=    -0.1330
Spin= Alpha
Occup=    0.00000
   1        -0.18770954
   2         0.68867933
   3         0.34403064
   4         0.00000000
   5        -0.00000000
   6         0.32453479
   7         0.00000000
   8         0.00000000
   9         0.18887443
  10         0.00000000
  11         0.00000000
  12        -0.00000000
  13        -0.00000000
  14        -0.00000000
  15         0.18770954
  16        -0.68867933
  17        -0.34403064
  18        -0.00000000
  19         0.00000000
  20         0.32453479
  21        -0.00000000
  22        -0.00000000
  23         0.18887443
  24        -0.00000000
  25         0.00000000
  26        -0.00000000
  27         0.00000000
  28         0.00000000
  29        -0.47947762
  30        -0.29032056
  31         0.00000000
  32         0.00000000
  33         0.00000000
  34        -0.47947762
  35        -0.29032056
  36         0.00000000
  37        -0.00000000
  38         0.00000000
  39         0.47947762
  40         0.29032056
  41        -0.00000000
  42        -0.00000000
  43         0.00000000
  44         0.47947762
  45         0.29032056
  46         0.00000000
  47         0.00000000
  48         0.00000000
Sym=    13a  
Ene=    -0.1072
Spin= Alpha
Occup=    0.00000
   1        -0.00000000
   2         0.00000000
   3        -0.00000000
   4        -0.00000000
   5        -0.76926978
   6        -0.00000000
   7        -0.00000000
   8        -0.44770359
   9         0.00000000
  10        -0.00000000
  11         0.00000000
  12         0.00000000
  13         0.00000000
  14        -0.00000000
  15         0.00000000
  16        -0.00000000
  17         0.00000000
  18        -0.00000000
  19         0.76926978
  20        -0.00000000
  21         0.00000000
  22         0.44770359
  23         0.00000000
  24         0.00000000
  25        -0.00000000
  26         0.00000000
  27        -0.00000000
  28        -0.00000000
  29         0.47688595
  30         0.28875132
  31         0.00000000
  32         0.00000000
  33        -0.00000000
  34        -0.47688595
  35        -0.28875132
  36         0.00000000
  37        -0.00000000
  38        -0.00000000
  39        -0.47688595
  40        -0.28875132
  41        -0.00000000
  42        -0.00000000
  43        -0.00000000
  44         0.47688595
  45         0.28875132
  46        -0.00000000
  47         0.00000000
  48        -0.00000000
Sym=    14a  
Ene=    -0.1041
Spin= Alpha
Occup=    0.00000
   1         0.18779585
   2        -0.79700248
   3        -0.39759638
   4         0.00000000
   5        -0.00000000
   6         0.82713804
   7         0.00000000
   8        -0.00000000
   9         0.48138207
  10         0.00000000
  11        -0.00000000
  12         0.00000000
  13         0.00000000
  14         0.00000000
  15        -0.18779585
  16         0.79700248
  17         0.39759638
  18        -0.00000000
  19         0.00000000
  20         0.82713804
  21        -0.00000000
  22         0.00000000
  23         0.48138207
  24         0.00000000
  25         0.00000000
  26        -0.00000000
  27        -0.00000000
  28        -0.00000000
  29        -0.06059957
  30        -0.03669264
  31        -0.00000000
  32         0.00000000
  33        -0.00000000
  34        -0.06059957
  35        -0.03669264
  36         0.00000000
  37        -0.00000000
  38        -0.00000000
  39         0.06059957
  40         0.03669264
  41         0.00000000
  42         0.00000000
  43         0.00000000
  44         0.06059957
  45         0.03669264
  46        -0.00000000
  47        -0.00000000
  48         0.00000000
Sym=    15a  
Ene=     3.6537
Spin= Alpha
Occup=    0.00000
   1         0.00000000
   2        -0.00000000
   3         0.00000000
   4         0.00000000
   5         0.15530071
   6         0.00000000
   7        -0.00000000
   8        -2.45847703
   9        -0.00000000
  10         0.00000000
  11        -0.00000000
  12        -0.08132076
  13         0.00000000
  14         0.00000000
  15        -0.00000000
  16         0.00000000
  17        -0.00000000
  18         0.00000000
  19        -0.15530071
  20         0.00000000
  21         0.00000000
  22         2.45847703
  23        -0.00000000
  24        -0.00000000
  25         0.00000000
  26        -0.08132076
  27         0.00000000
  28         0.00000000
  29        -0.09788445
  30         2.07627208
  31         0.00000000
  32        -0.10858704
  33        -0.11691916
  34         0.09788445
  35        -2.07627208
  36        -0.00000000
  37        -0.10858704
  38         0.11691916
  39         0.09788445
  40        -2.07627208
  41         0.00000000
  42         0.10858704
  43        -0.11691916
  44        -0.09788445
  45         2.07627208
  46        -0.00000000
  47         0.10858704
  48         0.11691916
Sym=    16a  
Ene=     3.7565
Spin= Alpha
Occup=    0.00000
   1         0.00000000
   2        -0.00000000
   3         0.00000000
   4         0.00000000
   5        -0.06728002
   6        -0.00000000
   7        -0.00000000
   8         0.89302258
   9         0.00000000
  10        -0.00000000
  11         0.00000000
  12         0.12042997
  13        -0.00000000
  14         0.00000000
  15         0.00000000
  16        -0.00000000
  17         0.00000000
  18        -0.00000000
  19        -0.06728002
  20         0.00000000
  21         0.00000000
  22         0.89302258
  23        -0.00000000
  24        -0.00000000
  25         0.00000000
  26        -0.12042997
  27        -0.00000000
  28         0.00000000
  29         0.33851400
  30        -1.42235597
  31        -0.00000000
  32         0.10392887
  33         0.09981120
  34        -0.33851400
  35         1.42235597
  36         0.00000000
  37         0.10392887
  38        -0.09981120
  39         0.33851400
  40        -1.42235597
  41         0.00000000
  42         0.10392887
  43        -0.09981120
  44        -0.33851400
  45         1.42235597
  46        -0.00000000
  47         0.10392887
  48         0.09981120
Sym=    17a  
Ene=     3.8143
Spin= Alpha
Occup=    0.00000
   1         0.02491695
   2        -0.30334489
   3         1.29619979
   4         0.00000000
   5         0.00000000
   6        -0.04771546
   7        -0.00000000
   8        -0.00000000
   9         1.28963410
  10        -0.00604706
  11        -0.00000000
  12         0.00000000
  13        -0.10960148
  14         0.00000000
  15        -0.02491695
  16         0.30334489
  17        -1.29619979
  18         0.00000000
  19        -0.00000000
  20        -0.04771546
  21        -0.00000000
  22         0.00000000
  23         1.28963410
  24         0.00604706
  25        -0.00000000
  26        -0.00000000
  27         0.10960148
  28         0.00000000
  29         0.32208921
  30        -1.58836288
  31         0.00000000
  32         0.16018985
  33         0.06087220
  34         0.32208921
  35        -1.58836288
  36         0.00000000
  37        -0.16018985
  38         0.06087220
  39        -0.32208921
  40         1.58836288
  41         0.00000000
  42        -0.16018985
  43         0.06087220
  44        -0.32208921
  45         1.58836288
  46        -0.00000000
  47         0.16018985
  48         0.06087220
Sym=    18a  
Ene=     3.8321
Spin= Alpha
Occup=    0.00000
   1        -0.02599621
   2         0.33296755
   3        -2.15562230
   4         0.00000000
   5        -0.00000000
   6         0.07404573
   7         0.00000000
   8         0.00000000
   9        -0.64542793
  10         0.01127775
  11         0.00000000
  12         0.00000000
  13         0.11405074
  14        -0.00000000
  15        -0.02599621
  16         0.33296755
  17        -2.15562230
  18         0.00000000
  19        -0.00000000
  20        -0.07404573
  21        -0.00000000
  22         0.00000000
  23         0.64542793
  24         0.01127775
  25         0.00000000
  26        -0.00000000
  27         0.11405074
  28         0.00000000
  29        -0.31920207
  30         1.39470290
  31         0.00000000
  32        -0.16824348
  33        -0.05704840
  34        -0.31920207
  35         1.39470290
  36         0.00000000
  37         0.16824348
  38        -0.05704840
  39        -0.31920207
  40         1.39470290
  41         0.00000000
  42        -0.16824348
  43         0.05704840
  44        -0.31920207
  45         1.39470290
  46         0.00000000
  47         0.16824348
  48         0.05704840
Sym=    19a  
Ene=     4.0007
Spin= Alpha
Occup=    0.00000
   1        -0.04557763
   2         0.62679609
   3        -8.88298885
   4         0.00000000
   5         0.00000000
   6        -0.23150724
   7         0.00000000
   8        -0.00000000
   9         4.52159535
  10        -0.21690922
  11         0.00000000
  12        -0.00000000
  13         0.02051571
  14        -0.00000000
  15         0.04557763
  16        -0.62679609
  17         8.88298885
  18         0.00000000
  19        -0.00000000
  20        -0.23150724
  21        -0.00000000
  22         0.00000000
  23         4.52159535
  24         0.21690922
  25         0.00000000
  26        -0.00000000
  27        -0.02051571
  28         0.00000000
  29        -0.00369906
  30         0.28500274
  31         0.00000000
  32         0.01967841
  33        -0.08895213
  34        -0.00369906
  35         0.28500274
  36        -0.00000000
  37        -0.01967841
  38        -0.08895213
  39         0.00369906
  40        -0.28500274
  41        -0.00000000
  42        -0.01967841
  43        -0.08895213
  44         0.00369906
  45        -0.28500274
  46         0.00000000
  47         0.01967841
  48        -0.08895213
Sym=    20a  
Ene=     4.2898
Spin= Alpha
Occup=    0.00000
   1        -0.01675816
   2         0.05645180
   3        -1.35582430
   4         0.00000000
   5        -0.00000000
   6         0.40002365
   7        -0.00000000
   8         0.00000000
   9        -1.21965359
  10        -0.00681746
  11         0.00000000
  12         0.00000000
  13         0.05274244
  14        -0.00000000
  15        -0.01675816
  16         0.05645180
  17        -1.35582430
  18         0.00000000
  19        -0.00000000
  20        -0.40002365
  21        -0.00000000
  22        -0.00000000
  23         1.21965359
  24        -0.00681746
  25         0.00000000
  26         0.00000000
  27         0.05274244
  28         0.00000000
  29         0.38019708
  30         0.43657398
  31        -0.00000000
  32        -0.10704879
  33        -0.05997506
  34         0.38019708
  35         0.43657398
  36         0.00000000
  37         0.10704879
  38        -0.05997506
  39         0.38019708
  40         0.43657398
  41        -0.00000000
  42        -0.10704879
  43         0.05997506
  44         0.38019708
  45         0.43657398
  46        -0.00000000
  47         0.10704879
  48         0.05997506
Sym=    21a  
Ene=     4.4695
Spin= Alpha
Occup=    0.00000
   1         0.00000000
   2        -0.00000000
   3        -0.00000000
   4         0.56803598
   5        -0.00000000
   6         0.00000000
   7        -1.36340223
   8        -0.00000000
   9        -0.00000000
  10        -0.00000000
  11         0.08236196
  12        -0.00000000
  13         0.00000000
  14        -0.00000000
  15         0.00000000
  16        -0.00000000
  17         0.00000000
  18        -0.56803598
  19        -0.00000000
  20        -0.00000000
  21         1.36340223
  22         0.00000000
  23        -0.00000000
  24        -0.00000000
  25         0.08236196
  26        -0.00000000
  27        -0.00000000
  28        -0.00000000
  29        -0.00000000
  30        -0.00000000
  31         0.12420928
  32         0.00000000
  33        -0.00000000
  34        -0.00000000
  35         0.00000000
  36         0.12420928
  37         0.00000000
  38         0.00000000
  39        -0.00000000
  40        -0.00000000
  41        -0.12420928
  42         0.00000000
  43         0.00000000
  44         0.00000000
  45         0.00000000
  46        -0.12420928
  47         0.00000000
  48         0.00000000
Sym=    22a  
Ene=     4.5386
Spin= Alpha
Occup=    0.00000
   1         0.08413900
   2        -0.83084032
   3         3.59238402
   4         0.00000000
   5        -0.00000000
   6        -0.23353516
   7        -0.00000000
   8         0.00000000
   9         0.48227452
  10        -0.04056159
  11         0.00000000
  12         0.00000000
  13        -0.07368215
  14        -0.00000000
  15        -0.08413900
  16         0.83084032
  17        -3.59238402
  18        -0.00000000
  19        -0.00000000
  20        -0.23353516
  21         0.00000000
  22         0.00000000
  23         0.48227452
  24         0.04056159
  25        -0.00000000
  26        -0.00000000
  27         0.07368215
  28         0.00000000
  29        -0.48536160
  30        -0.84970547
  31        -0.00000000
  32         0.15600683
  33         0.08452627
  34        -0.48536160
  35        -0.84970547
  36        -0.00000000
  37        -0.15600683
  38         0.08452627
  39         0.48536160
  40         0.84970547
  41         0.00000000
  42        -0.15600683
  43         0.08452627
  44         0.48536160
  45         0.84970547
  46        -0.00000000
  47         0.15600683
  48         0.08452627
Sym=    23a  
Ene=     4.5430
Spin= Alpha
Occup=    0.00000
   1        -0.00000000
   2         0.00000000
   3        -0.00000000
   4        -0.00000000
   5        -0.37552074
   6         0.00000000
   7         0.00000000
   8         1.27342062
   9        -0.00000000
  10         0.00000000
  11        -0.00000000
  12         0.17739283
  13         0.00000000
  14        -0.00000000
  15         0.00000000
  16        -0.00000000
  17         0.00000000
  18         0.00000000
  19        -0.37552074
  20         0.00000000
  21        -0.00000000
  22         1.27342062
  23        -0.00000000
  24        -0.00000000
  25        -0.00000000
  26        -0.17739283
  27        -0.00000000
  28         0.00000000
  29        -0.40303945
  30        -0.68166443
  31        -0.00000000
  32         0.21343540
  33         0.06339538
  34         0.40303945
  35         0.68166443
  36        -0.00000000
  37         0.21343540
  38        -0.06339538
  39        -0.40303945
  40        -0.68166443
  41         0.00000000
  42         0.21343540
  43        -0.06339538
  44         0.40303945
  45         0.68166443
  46         0.00000000
  47         0.21343540
  48         0.06339538
Sym=    24a  
Ene=     4.6169
Spin= Alpha
Occup=    0.00000
   1        -0.13785779
   2         1.01900587
   3        -1.74342385
   4         0.00000000
   5        -0.00000000
   6        -0.24803076
   7        -0.00000000
   8        -0.00000000
   9         0.03539118
  10         0.06169888
  11        -0.00000000
  12         0.00000000
  13         0.01677026
  14        -0.00000000
  15        -0.13785779
  16         1.01900587
  17        -1.74342385
  18         0.00000000
  19        -0.00000000
  20         0.24803076
  21        -0.00000000
  22         0.00000000
  23        -0.03539118
  24         0.06169888
  25         0.00000000
  26        -0.00000000
  27         0.01677026
  28         0.00000000
  29         0.27825113
  30         0.45869549
  31         0.00000000
  32        -0.08580123
  33        -0.01104637
  34         0.27825113
  35         0.45869549
  36         0.00000000
  37         0.08580123
  38        -0.01104637
  39         0.27825113
  40         0.45869549
  41         0.00000000
  42        -0.08580123
  43         0.01104637
  44         0.27825113
  45         0.45869549
  46         0.00000000
  47         0.08580123
  48         0.01104637
Sym=    25a  
Ene=     4.7183
Spin= Alpha
Occup=    0.00000
   1         0.00000000
   2        -0.00000000
   3         0.00000000
   4         0.62014386
   5         0.00000000
   6         0.00000000
   7        -0.65812370
   8        -0.00000000
   9        -0.00000000
  10         0.00000000
  11        -0.10808941
  12        -0.00000000
  13        -0.00000000
  14         0.00000000
  15         0.00000000
  16        -0.00000000
  17         0.00000000
  18         0.62014386
  19         0.00000000
  20        -0.00000000
  21        -0.65812370
  22         0.00000000
  23        -0.00000000
  24        -0.00000000
  25         0.10808941
  26         0.00000000
  27        -0.00000000
  28        -0.00000000
  29        -0.00000000
  30        -0.00000000
  31         0.15391296
  32         0.00000000
  33         0.00000000
  34        -0.00000000
  35        -0.00000000
  36         0.15391296
  37        -0.00000000
  38        -0.00000000
  39        -0.00000000
  40        -0.00000000
  41         0.15391296
  42         0.00000000
  43        -0.00000000
  44         0.00000000
  45        -0.00000000
  46         0.15391296
  47        -0.00000000
  48         0.00000000
Sym=    26a  
Ene=     4.8673
Spin= Alpha
Occup=    0.00000
   1         0.00000000
   2        -0.00000000
   3         0.00000000
   4        -0.00000000
   5         0.27385018
   6         0.00000000
   7         0.00000000
   8        -3.05601629
   9        -0.00000000
  10         0.00000000
  11        -0.00000000
  12         0.05089376
  13        -0.00000000
  14        -0.00000000
  15         0.00000000
  16        -0.00000000
  17        -0.00000000
  18        -0.00000000
  19        -0.27385018
  20        -0.00000000
  21        -0.00000000
  22         3.05601629
  23        -0.00000000
  24        -0.00000000
  25         0.00000000
  26         0.05089376
  27         0.00000000
  28        -0.00000000
  29         0.71466157
  30         0.91289079
  31        -0.00000000
  32        -0.15550764
  33         0.09535964
  34        -0.71466157
  35        -0.91289079
  36        -0.00000000
  37        -0.15550764
  38        -0.09535964
  39        -0.71466157
  40        -0.91289079
  41        -0.00000000
  42         0.15550764
  43         0.09535964
  44         0.71466157
  45         0.91289079
  46         0.00000000
  47         0.15550764
  48        -0.09535964
Sym=    27a  
Ene=     4.9617
Spin= Alpha
Occup=    0.00000
   1        -0.00000000
   2         0.00000000
   3        -0.00000000
   4        -0.00000000
   5         0.00000000
   6         0.00000000
   7         0.00000000
   8        -0.00000000
   9        -0.00000000
  10         0.00000000
  11        -0.00000000
  12         0.00000000
  13         0.00000000
  14         0.18276403
  15         0.00000000
  16        -0.00000000
  17         0.00000000
  18         0.00000000
  19        -0.00000000
  20         0.00000000
  21        -0.00000000
  22         0.00000000
  23        -0.00000000
  24         0.00000000
  25         0.00000000
  26         0.00000000
  27        -0.00000000
  28         0.18276403
  29         0.00000000
  30         0.00000000
  31         0.43198725
  32        -0.00000000
  33         0.00000000
  34        -0.00000000
  35         0.00000000
  36        -0.43198725
  37         0.00000000
  38        -0.00000000
  39        -0.00000000
  40        -0.00000000
  41         0.43198725
  42         0.00000000
  43         0.00000000
  44         0.00000000
  45         0.00000000
  46        -0.43198725
  47         0.00000000
  48        -0.00000000
Sym=    28a  
Ene=     4.9864
Spin= Alpha
Occup=    0.00000
   1        -0.00000000
   2         0.00000000
   3        -0.00000000
   4         0.00000000
   5        -0.00000000
   6        -0.00000000
   7        -0.00000000
   8         0.00000000
   9         0.00000000
  10        -0.00000000
  11        -0.00000000
  12         0.00000000
  13         0.00000000
  14        -0.14168917
  15         0.00000000
  16        -0.00000000
  17         0.00000000
  18         0.00000000
  19         0.00000000
  20         0.00000000
  21        -0.00000000
  22        -0.00000000
  23         0.00000000
  24         0.00000000
  25         0.00000000
  26         0.00000000
  27        -0.00000000
  28         0.14168917
  29         0.00000000
  30         0.00000000
  31        -0.45276466
  32        -0.00000000
  33        -0.00000000
  34         0.00000000
  35         0.00000000
  36         0.45276466
  37         0.00000000
  38        -0.00000000
  39        -0.00000000
  40        -0.00000000
  41         0.45276466
  42         0.00000000
  43        -0.00000000
  44        -0.00000000
  45        -0.00000000
  46        -0.45276466
  47        -0.00000000
  48        -0.00000000
Sym=    29a  
Ene=     5.1377
Spin= Alpha
Occup=    0.00000
   1         0.00000000
   2         0.00000000
   3        -0.00000000
   4        -0.12493201
   5         0.00000000
   6         0.00000000
   7        -0.04096008
   8         0.00000000
   9         0.00000000
  10        -0.00000000
  11         0.26660104
  12         0.00000000
  13        -0.00000000
  14        -0.00000000
  15        -0.00000000
  16         0.00000000
  17        -0.00000000
  18        -0.12493201
  19         0.00000000
  20        -0.00000000
  21        -0.04096008
  22        -0.00000000
  23         0.00000000
  24        -0.00000000
  25        -0.26660104
  26         0.00000000
  27        -0.00000000
  28         0.00000000
  29        -0.00000000
  30         0.00000000
  31         0.41813588
  32         0.00000000
  33         0.00000000
  34         0.00000000
  35        -0.00000000
  36         0.41813588
  37        -0.00000000
  38        -0.00000000
  39         0.00000000
  40         0.00000000
  41         0.41813588
  42         0.00000000
  43         0.00000000
  44        -0.00000000
  45        -0.00000000
  46         0.41813588
  47         0.00000000
  48        -0.00000000
Sym=    30a  
Ene=     5.2772
Spin= Alpha
Occup=    0.00000
   1        -0.00000000
   2         0.00000000
   3        -0.00000000
   4        -0.00000000
   5         0.14825660
   6        -0.00000000
   7         0.00000000
   8        -2.16995710
   9         0.00000000
  10        -0.00000000
  11         0.00000000
  12         0.02508600
  13        -0.00000000
  14         0.00000000
  15         0.00000000
  16        -0.00000000
  17         0.00000000
  18        -0.00000000
  19        -0.14825660
  20         0.00000000
  21         0.00000000
  22         2.16995710
  23         0.00000000
  24         0.00000000
  25        -0.00000000
  26         0.02508600
  27        -0.00000000
  28         0.00000000
  29         0.48045188
  30         0.67234573
  31         0.00000000
  32         0.32054555
  33        -0.38084131
  34        -0.48045188
  35        -0.67234573
  36         0.00000000
  37         0.32054555
  38         0.38084131
  39        -0.48045188
  40        -0.67234573
  41         0.00000000
  42        -0.32054555
  43        -0.38084131
  44         0.48045188
  45         0.67234573
  46         0.00000000
  47        -0.32054555
  48         0.38084131
Sym=    31a  
Ene=     5.3302
Spin= Alpha
Occup=    0.00000
   1        -0.00000000
   2         0.00000000
   3        -0.00000000
   4         0.00000000
   5         0.12322985
   6         0.00000000
   7        -0.00000000
   8        -0.60779983
   9        -0.00000000
  10         0.00000000
  11        -0.00000000
  12        -0.04326968
  13         0.00000000
  14        -0.00000000
  15         0.00000000
  16        -0.00000000
  17         0.00000000
  18         0.00000000
  19         0.12322985
  20         0.00000000
  21        -0.00000000
  22        -0.60779983
  23         0.00000000
  24         0.00000000
  25         0.00000000
  26         0.04326968
  27        -0.00000000
  28        -0.00000000
  29         0.18555367
  30         0.27977069
  31        -0.00000000
  32         0.31633624
  33        -0.42671923
  34        -0.18555367
  35        -0.27977069
  36        -0.00000000
  37         0.31633624
  38         0.42671923
  39         0.18555367
  40         0.27977069
  41        -0.00000000
  42         0.31633624
  43         0.42671923
  44        -0.18555367
  45        -0.27977069
  46        -0.00000000
  47         0.31633624
  48        -0.42671923
Sym=    32a  
Ene=     5.4276
Spin= Alpha
Occup=    0.00000
   1         0.01433594
   2        -0.13530922
   3        -0.38488294
   4         0.00000000
   5         0.00000000
   6         0.14896904
   7         0.00000000
   8        -0.00000000
   9        -0.74527610
  10         0.06581702
  11        -0.00000000
  12         0.00000000
  13         0.11331192
  14         0.00000000
  15         0.01433594
  16        -0.13530922
  17        -0.38488294
  18        -0.00000000
  19        -0.00000000
  20        -0.14896904
  21        -0.00000000
  22         0.00000000
  23         0.74527610
  24         0.06581702
  25        -0.00000000
  26        -0.00000000
  27         0.11331192
  28        -0.00000000
  29         0.14040569
  30         0.15966629
  31        -0.00000000
  32        -0.15979515
  33         0.50774644
  34         0.14040569
  35         0.15966629
  36        -0.00000000
  37         0.15979515
  38         0.50774644
  39         0.14040569
  40         0.15966629
  41         0.00000000
  42        -0.15979515
  43        -0.50774644
  44         0.14040569
  45         0.15966629
  46         0.00000000
  47         0.15979515
  48        -0.50774644
Sym=    33a  
Ene=     5.4337
Spin= Alpha
Occup=    0.00000
   1        -0.00000000
   2         0.00000000
   3         0.00000000
   4         0.23138412
   5        -0.00000000
   6        -0.00000000
   7         0.24273254
   8        -0.00000000
   9        -0.00000000
  10        -0.00000000
  11        -0.02380272
  12         0.00000000
  13         0.00000000
  14         0.00000000
  15         0.00000000
  16         0.00000000
  17        -0.00000000
  18        -0.23138412
  19         0.00000000
  20         0.00000000
  21        -0.24273254
  22        -0.00000000
  23        -0.00000000
  24        -0.00000000
  25        -0.02380272
  26         0.00000000
  27        -0.00000000
  28        -0.00000000
  29         0.00000000
  30         0.00000000
  31        -0.54944530
  32         0.00000000
  33        -0.00000000
  34        -0.00000000
  35        -0.00000000
  36        -0.54944530
  37        -0.00000000
  38        -0.00000000
  39        -0.00000000
  40        -0.00000000
  41         0.54944530
  42         0.00000000
  43         0.00000000
  44        -0.00000000
  45        -0.00000000
  46         0.54944530
  47        -0.00000000
  48         0.00000000
Sym=    34a  
Ene=     5.5435
Spin= Alpha
Occup=    0.00000
   1        -0.03619575
   2         0.25780271
   3         1.59830679
   4        -0.00000000
   5        -0.00000000
   6        -0.07595745
   7        -0.00000000
   8        -0.00000000
   9        -1.48143845
  10        -0.09980888
  11        -0.00000000
  12         0.00000000
  13         0.12637259
  14        -0.00000000
  15         0.03619575
  16        -0.25780271
  17        -1.59830679
  18         0.00000000
  19        -0.00000000
  20        -0.07595745
  21         0.00000000
  22        -0.00000000
  23        -1.48143845
  24         0.09980888
  25         0.00000000
  26         0.00000000
  27        -0.12637259
  28         0.00000000
  29         0.10973284
  30         0.14664659
  31         0.00000000
  32        -0.18304293
  33         0.54226712
  34         0.10973284
  35         0.14664659
  36         0.00000000
  37         0.18304293
  38         0.54226712
  39        -0.10973284
  40        -0.14664659
  41        -0.00000000
  42         0.18304293
  43         0.54226712
  44        -0.10973284
  45        -0.14664659
  46        -0.00000000
  47        -0.18304293
  48         0.54226712
Sym=    35a  
Ene=     5.8436
Spin= Alpha
Occup=    0.00000
   1         0.00000000
   2        -0.00000000
   3         0.00000000
   4         0.00000000
   5         0.23829047
   6        -0.00000000
   7         0.00000000
   8        -0.13175907
   9        -0.00000000
  10         0.00000000
  11         0.00000000
  12        -0.41367123
  13        -0.00000000
  14        -0.00000000
  15        -0.00000000
  16        -0.00000000
  17        -0.00000000
  18         0.00000000
  19         0.23829047
  20         0.00000000
  21        -0.00000000
  22        -0.13175907
  23        -0.00000000
  24         0.00000000
  25        -0.00000000
  26         0.41367123
  27        -0.00000000
  28        -0.00000000
  29         0.11152387
  30        -0.06718387
  31        -0.00000000
  32         0.23032839
  33         0.28825018
  34        -0.11152387
  35         0.06718387
  36        -0.00000000
  37         0.23032839
  38        -0.28825018
  39         0.11152387
  40        -0.06718387
  41        -0.00000000
  42         0.23032839
  43        -0.28825018
  44        -0.11152387
  45         0.06718387
  46        -0.00000000
  47         0.23032839
  48         0.28825018
Sym=    36a  
Ene=     5.9319
Spin= Alpha
Occup=    0.00000
   1        -0.05663481
   2         0.54224482
   3        -0.53165025
   4        -0.00000000
   5         0.00000000
   6         0.03052930
   7         0.00000000
   8        -0.00000000
   9         0.06456772
  10        -0.19564143
  11        -0.00000000
  12        -0.00000000
  13         0.56056287
  14         0.00000000
  15        -0.05663481
  16         0.54224482
  17        -0.53165025
  18        -0.00000000
  19         0.00000000
  20        -0.03052930
  21         0.00000000
  22         0.00000000
  23        -0.06456772
  24        -0.19564143
  25         0.00000000
  26         0.00000000
  27         0.56056287
  28         0.00000000
  29         0.12585254
  30         0.08729599
  31         0.00000000
  32         0.25594220
  33        -0.05412653
  34         0.12585254
  35         0.08729599
  36         0.00000000
  37        -0.25594220
  38        -0.05412653
  39         0.12585254
  40         0.08729599
  41         0.00000000
  42         0.25594220
  43         0.05412653
  44         0.12585254
  45         0.08729599
  46         0.00000000
  47        -0.25594220
  48         0.05412653
Sym=    37a  
Ene=     5.9767
Spin= Alpha
Occup=    0.00000
   1         0.00000000
   2        -0.00000000
   3         0.00000000
   4        -0.31188254
   5         0.00000000
   6        -0.00000000
   7         0.03167142
   8         0.00000000
   9         0.00000000
  10         0.00000000
  11        -0.58315073
  12        -0.00000000
  13        -0.00000000
  14        -0.00000000
  15         0.00000000
  16        -0.00000000
  17         0.00000000
  18        -0.31188254
  19         0.00000000
  20        -0.00000000
  21         0.03167142
  22        -0.00000000
  23         0.00000000
  24         0.00000000
  25         0.58315073
  26         0.00000000
  27        -0.00000000
  28        -0.00000000
  29        -0.00000000
  30        -0.00000000
  31         0.34051983
  32        -0.00000000
  33         0.00000000
  34        -0.00000000
  35        -0.00000000
  36         0.34051983
  37         0.00000000
  38        -0.00000000
  39        -0.00000000
  40        -0.00000000
  41         0.34051983
  42        -0.00000000
  43        -0.00000000
  44        -0.00000000
  45        -0.00000000
  46         0.34051983
  47         0.00000000
  48         0.00000000
Sym=    38a  
Ene=     6.0784
Spin= Alpha
Occup=    0.00000
   1         0.00000000
   2        -0.00000000
   3         0.00000000
   4        -0.00000000
   5         0.00000000
   6         0.00000000
   7        -0.00000000
   8         0.00000000
   9         0.00000000
  10         0.00000000
  11        -0.00000000
  12        -0.00000000
  13        -0.00000000
  14         0.72247941
  15         0.00000000
  16        -0.00000000
  17         0.00000000
  18        -0.00000000
  19        -0.00000000
  20         0.00000000
  21         0.00000000
  22        -0.00000000
  23         0.00000000
  24        -0.00000000
  25         0.00000000
  26         0.00000000
  27        -0.00000000
  28         0.72247941
  29        -0.00000000
  30        -0.00000000
  31        -0.33878159
  32         0.00000000
  33         0.00000000
  34        -0.00000000
  35        -0.00000000
  36         0.33878159
  37        -0.00000000
  38        -0.00000000
  39         0.00000000
  40         0.00000000
  41        -0.33878159
  42        -0.00000000
  43        -0.00000000
  44        -0.00000000
  45        -0.00000000
  46         0.33878159
  47         0.00000000
  48        -0.00000000
Sym=    39a  
Ene=     6.2925
Spin= Alpha
Occup=    0.00000
   1        -0.04851953
   2         0.53368834
   3        -2.61328898
   4         0.00000000
   5        -0.00000000
   6         0.32330751
   7        -0.00000000
   8        -0.00000000
   9         1.06771378
  10        -0.07021998
  11        -0.00000000
  12        -0.00000000
  13         0.51789265
  14         0.00000000
  15         0.04851953
  16        -0.53368834
  17         2.61328898
  18        -0.00000000
  19         0.00000000
  20         0.32330751
  21         0.00000000
  22         0.00000000
  23         1.06771378
  24         0.07021998
  25        -0.00000000
  26        -0.00000000
  27        -0.51789265
  28        -0.00000000
  29         0.07826819
  30         0.05033763
  31        -0.00000000
  32         0.42154139
  33        -0.08405038
  34         0.07826819
  35         0.05033763
  36        -0.00000000
  37        -0.42154139
  38        -0.08405038
  39        -0.07826819
  40        -0.05033763
  41         0.00000000
  42        -0.42154139
  43        -0.08405038
  44        -0.07826819
  45        -0.05033763
  46        -0.00000000
  47         0.42154139
  48        -0.08405038
Sym=    40a  
Ene=     6.4721
Spin= Alpha
Occup=    0.00000
   1         0.00000000
   2         0.00000000
   3         0.00000000
   4         0.00000000
   5         0.00000000
   6         0.00000000
   7         0.00000000
   8        -0.00000000
   9         0.00000000
  10         0.00000000
  11        -0.00000000
  12        -0.00000000
  13        -0.00000000
  14        -0.80299376
  15         0.00000000
  16        -0.00000000
  17         0.00000000
  18         0.00000000
  19        -0.00000000
  20        -0.00000000
  21        -0.00000000
  22         0.00000000
  23         0.00000000
  24        -0.00000000
  25        -0.00000000
  26        -0.00000000
  27        -0.00000000
  28         0.80299376
  29        -0.00000000
  30        -0.00000000
  31         0.32277721
  32         0.00000000
  33         0.00000000
  34        -0.00000000
  35        -0.00000000
  36        -0.32277721
  37        -0.00000000
  38        -0.00000000
  39        -0.00000000
  40         0.00000000
  41        -0.32277721
  42        -0.00000000
  43        -0.00000000
  44        -0.00000000
  45        -0.00000000
  46         0.32277721
  47        -0.00000000
  48        -0.00000000
Sym=    41a  
Ene=     6.5835
Spin= Alpha
Occup=    0.00000
   1         0.00000000
   2        -0.00000000
   3         0.00000000
   4        -0.00000000
   5        -0.67002606
   6        -0.00000000
   7         0.00000000
   8         0.15245481
   9        -0.00000000
  10         0.00000000
  11         0.00000000
  12         0.24410395
  13        -0.00000000
  14        -0.00000000
  15        -0.00000000
  16         0.00000000
  17        -0.00000000
  18         0.00000000
  19         0.67002606
  20        -0.00000000
  21        -0.00000000
  22        -0.15245481
  23        -0.00000000
  24         0.00000000
  25         0.00000000
  26         0.24410395
  27         0.00000000
  28         0.00000000
  29         0.09474617
  30         0.09966989
  31         0.00000000
  32        -0.39748920
  33        -0.42650765
  34        -0.09474617
  35        -0.09966989
  36        -0.00000000
  37        -0.39748920
  38         0.42650765
  39        -0.09474617
  40        -0.09966989
  41         0.00000000
  42         0.39748920
  43        -0.42650765
  44         0.09474617
  45         0.09966989
  46         0.00000000
  47         0.39748920
  48         0.42650765
Sym=    42a  
Ene=     6.6314
Spin= Alpha
Occup=    0.00000
   1         0.01471046
   2        -0.19583160
   3         0.32008589
   4        -0.00000000
   5         0.00000000
   6         0.31623777
   7         0.00000000
   8        -0.00000000
   9        -0.07045242
  10         0.69638979
  11         0.00000000
  12        -0.00000000
  13         0.12990264
  14         0.00000000
  15         0.01471046
  16        -0.19583160
  17         0.32008589
  18         0.00000000
  19        -0.00000000
  20        -0.31623777
  21         0.00000000
  22         0.00000000
  23         0.07045242
  24         0.69638979
  25         0.00000000
  26        -0.00000000
  27         0.12990264
  28        -0.00000000
  29        -0.00992264
  30        -0.11571610
  31        -0.00000000
  32         0.25486105
  33        -0.19566470
  34        -0.00992264
  35        -0.11571610
  36        -0.00000000
  37        -0.25486105
  38        -0.19566470
  39        -0.00992264
  40        -0.11571610
  41         0.00000000
  42         0.25486105
  43         0.19566470
  44        -0.00992264
  45        -0.11571610
  46         0.00000000
  47        -0.25486105
  48         0.19566470
Sym=    43a  
Ene=     6.6886
Spin= Alpha
Occup=    0.00000
   1        -0.00000000
   2         0.00000000
   3         0.00000000
   4        -0.13555297
   5         0.00000000
   6        -0.00000000
   7        -0.02688042
   8        -0.00000000
   9         0.00000000
  10        -0.00000000
  11         0.91548503
  12        -0.00000000
  13        -0.00000000
  14        -0.00000000
  15        -0.00000000
  16         0.00000000
  17        -0.00000000
  18         0.13555297
  19        -0.00000000
  20         0.00000000
  21         0.02688042
  22        -0.00000000
  23        -0.00000000
  24        -0.00000000
  25         0.91548503
  26        -0.00000000
  27        -0.00000000
  28         0.00000000
  29        -0.00000000
  30        -0.00000000
  31        -0.14340822
  32         0.00000000
  33         0.00000000
  34        -0.00000000
  35        -0.00000000
  36        -0.14340822
  37         0.00000000
  38         0.00000000
  39         0.00000000
  40         0.00000000
  41         0.14340822
  42        -0.00000000
  43         0.00000000
  44        -0.00000000
  45        -0.00000000
  46         0.14340822
  47        -0.00000000
  48        -0.00000000
Sym=    44a  
Ene=     7.4648
Spin= Alpha
Occup=    0.00000
   1         0.15420321
   2        -1.11361789
   3         0.09366772
   4        -0.00000000
   5         0.00000000
   6        -0.54259544
   7         0.00000000
   8         0.00000000
   9        -0.04114238
  10         0.13556841
  11         0.00000000
  12         0.00000000
  13         0.66316199
  14        -0.00000000
  15         0.15420321
  16        -1.11361789
  17         0.09366772
  18        -0.00000000
  19         0.00000000
  20         0.54259544
  21         0.00000000
  22        -0.00000000
  23         0.04114238
  24         0.13556841
  25         0.00000000
  26        -0.00000000
  27         0.66316199
  28         0.00000000
  29         0.58352493
  30        -0.02616651
  31         0.00000000
  32        -0.63503090
  33        -0.40638840
  34         0.58352493
  35        -0.02616651
  36        -0.00000000
  37         0.63503090
  38        -0.40638840
  39         0.58352493
  40        -0.02616651
  41        -0.00000000
  42        -0.63503090
  43         0.40638840
  44         0.58352493
  45        -0.02616651
  46         0.00000000
  47         0.63503090
  48         0.40638840
Sym=    45a  
Ene=     7.7168
Spin= Alpha
Occup=    0.00000
   1         0.00000000
   2        -0.00000000
   3        -0.00000000
   4        -0.00000000
   5         0.95817548
   6         0.00000000
   7         0.00000000
   8         0.12774539
   9         0.00000000
  10        -0.00000000
  11         0.00000000
  12         0.79034065
  13         0.00000000
  14         0.00000000
  15        -0.00000000
  16         0.00000000
  17         0.00000000
  18         0.00000000
  19         0.95817548
  20         0.00000000
  21        -0.00000000
  22         0.12774539
  23         0.00000000
  24         0.00000000
  25         0.00000000
  26        -0.79034065
  27        -0.00000000
  28         0.00000000
  29        -0.60847906
  30        -0.06765749
  31        -0.00000000
  32         0.60420124
  33         0.38058109
  34         0.60847906
  35         0.06765749
  36        -0.00000000
  37         0.60420124
  38        -0.38058109
  39        -0.60847906
  40        -0.06765749
  41        -0.00000000
  42         0.60420124
  43        -0.38058109
  44         0.60847906
  45         0.06765749
  46         0.00000000
  47         0.60420124
  48         0.38058109
Sym=    46a  
Ene=     7.8043
Spin= Alpha
Occup=    0.00000
   1         0.15955301
   2        -1.00890696
   3        -0.10255206
   4         0.00000000
   5        -0.00000000
   6         0.51034679
   7        -0.00000000
   8         0.00000000
   9         0.10457229
  10        -1.05715937
  11         0.00000000
  12        -0.00000000
  13         0.15799330
  14        -0.00000000
  15        -0.15955301
  16         1.00890696
  17         0.10255206
  18         0.00000000
  19        -0.00000000
  20         0.51034679
  21        -0.00000000
  22        -0.00000000
  23         0.10457229
  24         1.05715937
  25         0.00000000
  26         0.00000000
  27        -0.15799330
  28         0.00000000
  29         0.17406193
  30        -0.01934369
  31         0.00000000
  32        -0.27390683
  33        -0.01181328
  34         0.17406193
  35        -0.01934369
  36        -0.00000000
  37         0.27390683
  38        -0.01181328
  39        -0.17406193
  40         0.01934369
  41        -0.00000000
  42         0.27390683
  43        -0.01181328
  44        -0.17406193
  45         0.01934369
  46         0.00000000
  47        -0.27390683
  48        -0.01181328
Sym=    47a  
Ene=     7.8928
Spin= Alpha
Occup=    0.00000
   1         0.00000000
   2        -0.00000000
   3        -0.00000000
   4         0.00000000
   5         0.55505404
   6        -0.00000000
   7        -0.00000000
   8         0.60030352
   9         0.00000000
  10         0.00000000
  11         0.00000000
  12         1.22210096
  13         0.00000000
  14        -0.00000000
  15        -0.00000000
  16         0.00000000
  17         0.00000000
  18        -0.00000000
  19        -0.55505404
  20        -0.00000000
  21         0.00000000
  22        -0.60030352
  23         0.00000000
  24        -0.00000000
  25        -0.00000000
  26         1.22210096
  27        -0.00000000
  28        -0.00000000
  29        -0.71324173
  30        -0.17748611
  31        -0.00000000
  32         0.57902258
  33         0.22195144
  34         0.71324173
  35         0.17748611
  36        -0.00000000
  37         0.57902258
  38        -0.22195144
  39         0.71324173
  40         0.17748611
  41        -0.00000000
  42        -0.57902258
  43         0.22195144
  44        -0.71324173
  45        -0.17748611
  46        -0.00000000
  47        -0.57902258
  48        -0.22195144
Sym=    48a  
Ene=     7.8936
Spin= Alpha
Occup=    0.00000
   1        -0.12250037
   2         0.81480449
   3         0.43178269
   4         0.00000000
   5         0.00000000
   6         0.69373113
   7         0.00000000
   8         0.00000000
   9        -0.09654006
  10        -0.39475094
  11        -0.00000000
  12         0.00000000
  13        -0.82873037
  14        -0.00000000
  15         0.12250037
  16        -0.81480449
  17        -0.43178269
  18         0.00000000
  19        -0.00000000
  20         0.69373113
  21        -0.00000000
  22        -0.00000000
  23        -0.09654006
  24         0.39475094
  25         0.00000000
  26         0.00000000
  27         0.82873037
  28        -0.00000000
  29        -0.61340798
  30        -0.05210555
  31        -0.00000000
  32         0.55440945
  33         0.45875607
  34        -0.61340798
  35        -0.05210555
  36        -0.00000000
  37        -0.55440945
  38         0.45875607
  39         0.61340798
  40         0.05210555
  41         0.00000000
  42        -0.55440945
  43         0.45875607
  44         0.61340798
  45         0.05210555
  46        -0.00000000
  47         0.55440945
  48         0.45875607
