15

C     -3.5813375052   -0.2451840182   -0.0748443889
C     -2.3364449550    0.6277338805   -0.1722825167
H     -3.5153606098   -1.1454549603   -0.7202061560
H     -4.5081261790    0.3139302766   -0.4204320994
H     -3.7963778630   -0.5633708383    0.9675318089
H     -2.4018575526    1.5177829309    0.4879048639
H     -2.1168687000    0.9325311489   -1.2113853144
C     -0.3581652951   -0.3697191792    0.4720873156
C      0.8534116541    0.4755704378    0.4312094873
C      1.9467067175    0.2292821585   -0.3340195525
H     -0.2363094698   -1.2793582588   -0.1571487307
H     -0.6840622966   -0.6298278662    1.4955804469
H      0.8763924777    1.3656548691    1.0924219886
H      2.0003180873   -0.6616471328   -0.9931739324
H      2.8270468284    0.9034021323   -0.3224439094
