15

C     -3.2947367770   -0.2727235268   -0.0429586525
C     -1.9938439534    0.5342948207   -0.0977874485
H     -3.2433253354   -1.1768752753   -0.6847716528
H     -4.1700477521    0.3296377624   -0.4015143261
H     -3.5335121235   -0.6002110330    0.9912198234
H     -2.0793462836    1.4441418054    0.5375358504
H     -1.7860792839    0.8697463637   -1.1347317809
C     -0.6756924001   -0.2683428734    0.3943707695
C      0.5956318486    0.5246453040    0.3874986499
C      1.6923812589    0.2314032750   -0.3398112141
H     -0.5565220740   -1.1801715501   -0.2331840824
H     -0.9290995985   -0.5910202925    1.4291463655
H      0.6192285344    1.4217719947    1.0364285952
H      1.7261117132   -0.6592659079   -0.9946296676
H      2.5978247033    0.8642933407   -0.3060190955
