[Molden Format]
[N_Atoms]
                    2
[Atoms] (AU)
C1          1      6           0.00000000      0.00000000      0.00000000
O2          2      8           0.00000000      0.00000000      2.13217799
[5D]
[Charge] (Mulliken)
   0.0000000000000000     
   0.0000000000000000     
[GTO] (AU)
   1
   s   5
  1.238401694E+03  5.517365048E-03
  1.862900499E+02  4.108882856E-02
  4.225117635E+01  1.822538213E-01
  1.167655793E+01  4.682845944E-01
  3.593050648E+00  4.457581734E-01
   s   1
  4.024514736E-01  1.000000000E+00
   s   1
  1.309018267E-01  1.000000000E+00
   p   3
  9.468097062E+00  5.688833201E-02
  2.010354514E+00  3.129405934E-01
  5.477100471E-01  7.606501651E-01
   p   1
  1.526861379E-01  1.000000000E+00
   d   1
  8.000000000E-01  1.000000000E+00
 
   2
   s   5
  2.266176779E+03 -5.389350392E-03
  3.408701019E+02 -4.023472139E-02
  7.736313517E+01 -1.800818421E-01
  2.147964494E+01 -4.682885766E-01
  6.658943312E+00 -4.469261716E-01
   s   1
  8.097597567E-01  1.000000000E+00
   s   1
  2.553077223E-01  1.000000000E+00
   p   3
  1.772150432E+01  6.263024876E-02
  3.863550544E+00  3.333113848E-01
  1.048092088E+00  7.414863831E-01
   p   1
  2.764154441E-01  1.000000000E+00
   d   1
  1.200000000E+00  1.000000000E+00
 
[MO]
Sym=     1a  
Ene=   -20.6870
Spin= Alpha
Occup=    2.00000
   1        -0.00034186
   2        -0.00134433
   3        -0.00065839
   4        -0.00000000
   5        -0.00000000
   6        -0.00134250
   7        -0.00000000
   8         0.00000000
   9        -0.00078132
  10         0.00000000
  11         0.00000000
  12         0.00000000
  13        -0.00000000
  14        -0.00000000
  15         0.99101112
  16        -0.02822410
  17         0.00762968
  18         0.00000000
  19         0.00000000
  20         0.00002644
  21         0.00000000
  22        -0.00000000
  23         0.00001854
  24        -0.00000000
  25         0.00000000
  26        -0.00000000
  27        -0.00000000
  28        -0.00000000
Sym=     2a  
Ene=   -11.3380
Spin= Alpha
Occup=    2.00000
   1         0.99083440
   2         0.02651849
   3        -0.00530518
   4        -0.00000000
   5         0.00000000
   6         0.00013572
   7        -0.00000000
   8         0.00000000
   9         0.00007899
  10         0.00000000
  11        -0.00000000
  12         0.00000000
  13        -0.00000000
  14         0.00000000
  15         0.00389505
  16         0.00452675
  17         0.00306374
  18        -0.00000000
  19         0.00000000
  20        -0.00428339
  21         0.00000000
  22        -0.00000000
  23        -0.00300271
  24         0.00000000
  25         0.00000000
  26         0.00000000
  27        -0.00000000
  28        -0.00000000
Sym=     3a  
Ene=    -1.5769
Spin= Alpha
Occup=    2.00000
   1        -0.15046480
   2         0.20970198
   3         0.10649134
   4        -0.00000000
   5        -0.00000000
   6         0.10727686
   7         0.00000000
   8         0.00000000
   9         0.06243354
  10         0.00000000
  11        -0.00000000
  12         0.00000000
  13         0.00000000
  14         0.00000000
  15         0.26538399
  16         0.49216737
  17         0.32894004
  18        -0.00000000
  19         0.00000000
  20        -0.06454923
  21        -0.00000000
  22        -0.00000000
  23        -0.04524980
  24        -0.00000000
  25         0.00000000
  26         0.00000000
  27        -0.00000000
  28        -0.00000000
Sym=     4a  
Ene=    -0.7960
Spin= Alpha
Occup=    2.00000
   1         0.20555362
   2        -0.36376907
   3        -0.18369918
   4        -0.00000000
   5         0.00000000
   6         0.06987772
   7        -0.00000000
   8         0.00000000
   9         0.04066780
  10         0.00000000
  11        -0.00000000
  12         0.00000000
  13         0.00000000
  14        -0.00000000
  15         0.12669619
  16         0.30330134
  17         0.20174124
  18        -0.00000000
  19         0.00000000
  20         0.45178162
  21        -0.00000000
  22        -0.00000000
  23         0.31670443
  24        -0.00000000
  25        -0.00000000
  26        -0.00000000
  27        -0.00000000
  28        -0.00000000
Sym=     5a  
Ene=    -0.7313
Spin= Alpha
Occup=    2.00000
   1        -0.00000000
   2        -0.00000000
   3        -0.00000000
   4        -0.00548268
   5         0.27436750
   6        -0.00000000
   7        -0.00319084
   8         0.15967781
   9        -0.00000000
  10        -0.00000000
  11        -0.00000000
  12         0.00000000
  13        -0.00000000
  14        -0.00000000
  15        -0.00000000
  16        -0.00000000
  17         0.00000000
  18        -0.01088675
  19         0.54480079
  20         0.00000000
  21        -0.00763174
  22         0.38191200
  23        -0.00000000
  24         0.00000000
  25        -0.00000000
  26        -0.00000000
  27        -0.00000000
  28         0.00000000
Sym=     6a  
Ene=    -0.7313
Spin= Alpha
Occup=    2.00000
   1         0.00000000
   2        -0.00000000
   3        -0.00000000
   4         0.27436750
   5         0.00548268
   6        -0.00000000
   7         0.15967781
   8         0.00319084
   9        -0.00000000
  10        -0.00000000
  11         0.00000000
  12        -0.00000000
  13        -0.00000000
  14         0.00000000
  15         0.00000000
  16         0.00000000
  17         0.00000000
  18         0.54480079
  19         0.01088675
  20         0.00000000
  21         0.38191200
  22         0.00763174
  23        -0.00000000
  24         0.00000000
  25         0.00000000
  26        -0.00000000
  27         0.00000000
  28        -0.00000000
Sym=     7a  
Ene=    -0.4975
Spin= Alpha
Occup=    2.00000
   1        -0.14370192
   2         0.47147585
   3         0.23580880
   4         0.00000000
   5         0.00000000
   6        -0.45575784
   7         0.00000000
   8        -0.00000000
   9        -0.26524430
  10         0.00000000
  11        -0.00000000
  12        -0.00000000
  13         0.00000000
  14        -0.00000000
  15        -0.00352699
  16         0.04090667
  17         0.02666635
  18        -0.00000000
  19        -0.00000000
  20         0.37166036
  21        -0.00000000
  22         0.00000000
  23         0.26053845
  24        -0.00000000
  25         0.00000000
  26        -0.00000000
  27        -0.00000000
  28        -0.00000000
Sym=     8a  
Ene=    -0.3376
Spin= Alpha
Occup=    0.00000
   1        -0.00000000
   2         0.00000000
   3         0.00000000
   4        -0.67834887
   5         0.18727570
   6        -0.00000000
   7        -0.39478897
   8         0.10899168
   9         0.00000000
  10         0.00000000
  11        -0.00000000
  12        -0.00000000
  13        -0.00000000
  14        -0.00000000
  15        -0.00000000
  16        -0.00000000
  17        -0.00000000
  18         0.44368645
  19        -0.12249109
  20         0.00000000
  21         0.31102961
  22        -0.08586775
  23        -0.00000000
  24        -0.00000000
  25        -0.00000000
  26         0.00000000
  27         0.00000000
  28        -0.00000000
Sym=     9a  
Ene=    -0.3376
Spin= Alpha
Occup=    0.00000
   1        -0.00000000
   2        -0.00000000
   3        -0.00000000
   4        -0.18727570
   5        -0.67834887
   6        -0.00000000
   7        -0.10899168
   8        -0.39478897
   9         0.00000000
  10        -0.00000000
  11        -0.00000000
  12         0.00000000
  13         0.00000000
  14         0.00000000
  15         0.00000000
  16         0.00000000
  17        -0.00000000
  18         0.12249109
  19         0.44368645
  20         0.00000000
  21         0.08586775
  22         0.31102961
  23        -0.00000000
  24         0.00000000
  25        -0.00000000
  26         0.00000000
  27        -0.00000000
  28         0.00000000
Sym=    10a  
Ene=    -0.1324
Spin= Alpha
Occup=    0.00000
   1        -0.17751777
   2         0.80892283
   3         0.40329976
   4         0.00000000
   5        -0.00000000
   6         0.85536893
   7         0.00000000
   8        -0.00000000
   9         0.49781203
  10         0.00000000
  11         0.00000000
  12         0.00000000
  13        -0.00000000
  14        -0.00000000
  15        -0.22277596
  16        -0.80936950
  17        -0.53531688
  18        -0.00000000
  19        -0.00000000
  20         0.61887929
  21        -0.00000000
  22         0.00000000
  23         0.43384193
  24        -0.00000000
  25        -0.00000000
  26         0.00000000
  27         0.00000000
  28        -0.00000000
Sym=    11a  
Ene=     4.0893
Spin= Alpha
Occup=    0.00000
   1        -0.06384280
   2         0.08571073
   3        -2.34143115
   4        -0.00000000
   5         0.00000000
   6         0.24906433
   7         0.00000000
   8        -0.00000000
   9        -2.19321202
  10        -0.37691564
  11         0.00000000
  12        -0.00000000
  13        -0.00000000
  14        -0.00000000
  15        -0.02705844
  16        -0.54033348
  17         3.14589692
  18         0.00000000
  19        -0.00000000
  20         0.08003149
  21        -0.00000000
  22         0.00000000
  23        -0.85321218
  24         0.16505151
  25        -0.00000000
  26        -0.00000000
  27        -0.00000000
  28        -0.00000000
Sym=    12a  
Ene=     4.5789
Spin= Alpha
Occup=    0.00000
   1        -0.00000000
   2         0.00000000
   3        -0.00000000
   4        -0.45401759
   5         0.72896782
   6        -0.00000000
   7         0.68488067
   8        -1.09964015
   9         0.00000000
  10         0.00000000
  11         0.03791633
  12        -0.06087822
  13        -0.00000000
  14        -0.00000000
  15         0.00000000
  16         0.00000000
  17        -0.00000000
  18         0.04322548
  19        -0.06940256
  20         0.00000000
  21        -0.25400336
  22         0.40782622
  23        -0.00000000
  24        -0.00000000
  25         0.04309591
  26        -0.06919453
  27         0.00000000
  28        -0.00000000
Sym=    13a  
Ene=     4.5789
Spin= Alpha
Occup=    0.00000
   1         0.00000000
   2        -0.00000000
   3        -0.00000000
   4         0.72896782
   5         0.45401759
   6         0.00000000
   7        -1.09964015
   8        -0.68488067
   9        -0.00000000
  10        -0.00000000
  11        -0.06087822
  12        -0.03791633
  13         0.00000000
  14        -0.00000000
  15        -0.00000000
  16        -0.00000000
  17         0.00000000
  18        -0.06940256
  19        -0.04322548
  20        -0.00000000
  21         0.40782622
  22         0.25400336
  23        -0.00000000
  24         0.00000000
  25        -0.06919453
  26        -0.04309591
  27        -0.00000000
  28        -0.00000000
Sym=    14a  
Ene=     4.7952
Spin= Alpha
Occup=    0.00000
   1         0.22229500
   2        -1.20014496
   3         1.54756193
   4        -0.00000000
   5         0.00000000
   6         0.59309763
   7         0.00000000
   8        -0.00000000
   9        -0.46644431
  10         0.06195128
  11        -0.00000000
  12         0.00000000
  13        -0.00000000
  14        -0.00000000
  15         0.00200828
  16         0.07243828
  17        -0.37489964
  18        -0.00000000
  19         0.00000000
  20        -0.02925895
  21         0.00000000
  22        -0.00000000
  23         0.19545079
  24        -0.00773559
  25         0.00000000
  26         0.00000000
  27        -0.00000000
  28        -0.00000000
Sym=    15a  
Ene=     5.6343
Spin= Alpha
Occup=    0.00000
   1        -0.12905396
   2         1.45462485
   3         0.63031334
   4        -0.00000000
   5        -0.00000000
   6         0.64090467
   7        -0.00000000
   8        -0.00000000
   9         0.53864377
  10         0.43548274
  11        -0.00000000
  12        -0.00000000
  13         0.00000000
  14         0.00000000
  15        -0.00790846
  16         0.21828612
  17        -1.86804827
  18        -0.00000000
  19        -0.00000000
  20        -0.47546232
  21         0.00000000
  22         0.00000000
  23         1.88693346
  24        -0.00572826
  25         0.00000000
  26         0.00000000
  27         0.00000000
  28         0.00000000
Sym=    16a  
Ene=     5.7821
Spin= Alpha
Occup=    0.00000
   1         0.00000000
   2        -0.00000000
   3         0.00000000
   4         0.00000000
   5         0.00000000
   6        -0.00000000
   7         0.00000000
   8         0.00000000
   9        -0.00000000
  10        -0.00000000
  11         0.00000000
  12         0.00000000
  13         0.98236560
  14        -0.00000000
  15         0.00000000
  16        -0.00000000
  17         0.00000000
  18         0.00000000
  19         0.00000000
  20         0.00000000
  21        -0.00000000
  22        -0.00000000
  23        -0.00000000
  24         0.00000000
  25        -0.00000000
  26        -0.00000000
  27         0.11037706
  28        -0.00000000
Sym=    17a  
Ene=     5.7821
Spin= Alpha
Occup=    0.00000
   1         0.00000000
   2        -0.00000000
   3        -0.00000000
   4         0.00000000
   5         0.00000000
   6        -0.00000000
   7         0.00000000
   8         0.00000000
   9        -0.00000000
  10        -0.00000000
  11         0.00000000
  12         0.00000000
  13         0.00000000
  14         0.98236560
  15        -0.00000000
  16        -0.00000000
  17         0.00000000
  18         0.00000000
  19         0.00000000
  20         0.00000000
  21        -0.00000000
  22        -0.00000000
  23        -0.00000000
  24         0.00000000
  25        -0.00000000
  26        -0.00000000
  27         0.00000000
  28         0.11037706
Sym=    18a  
Ene=     5.8495
Spin= Alpha
Occup=    0.00000
   1         0.00000000
   2        -0.00000000
   3        -0.00000000
   4         0.03847042
   5        -0.09597680
   6        -0.00000000
   7         0.10502877
   8        -0.26202799
   9        -0.00000000
  10         0.00000000
  11         0.33490752
  12        -0.83553433
  13        -0.00000000
  14         0.00000000
  15        -0.00000000
  16        -0.00000000
  17         0.00000000
  18         0.11972801
  19        -0.29869997
  20         0.00000000
  21        -0.31117843
  22         0.77633450
  23        -0.00000000
  24        -0.00000000
  25        -0.04697343
  26         0.11719031
  27        -0.00000000
  28        -0.00000000
Sym=    19a  
Ene=     5.8495
Spin= Alpha
Occup=    0.00000
   1        -0.00000000
   2        -0.00000000
   3        -0.00000000
   4        -0.09597680
   5        -0.03847042
   6        -0.00000000
   7        -0.26202799
   8        -0.10502877
   9        -0.00000000
  10        -0.00000000
  11        -0.83553433
  12        -0.33490752
  13         0.00000000
  14         0.00000000
  15        -0.00000000
  16        -0.00000000
  17         0.00000000
  18        -0.29869997
  19        -0.11972801
  20         0.00000000
  21         0.77633450
  22         0.31117843
  23        -0.00000000
  24         0.00000000
  25         0.11719031
  26         0.04697343
  27         0.00000000
  28         0.00000000
Sym=    20a  
Ene=     6.6348
Spin= Alpha
Occup=    0.00000
   1         0.00000000
   2        -0.00000000
   3        -0.00000000
   4        -0.03999967
   5        -0.22087363
   6        -0.00000000
   7        -0.03376706
   8        -0.18645786
   9        -0.00000000
  10         0.00000000
  11         0.06880263
  12         0.37992028
  13        -0.00000000
  14         0.00000000
  15        -0.00000000
  16        -0.00000000
  17         0.00000000
  18        -0.15550036
  19        -0.85865523
  20         0.00000000
  21         0.17805738
  22         0.98321251
  23        -0.00000000
  24        -0.00000000
  25        -0.02376856
  26        -0.13124727
  27        -0.00000000
  28        -0.00000000
Sym=    21a  
Ene=     6.6348
Spin= Alpha
Occup=    0.00000
   1        -0.00000000
   2         0.00000000
   3         0.00000000
   4        -0.22087363
   5         0.03999967
   6        -0.00000000
   7        -0.18645786
   8         0.03376706
   9         0.00000000
  10        -0.00000000
  11         0.37992028
  12        -0.06880263
  13         0.00000000
  14        -0.00000000
  15         0.00000000
  16         0.00000000
  17        -0.00000000
  18        -0.85865523
  19         0.15550036
  20         0.00000000
  21         0.98321251
  22        -0.17805738
  23        -0.00000000
  24         0.00000000
  25        -0.13124727
  26         0.02376856
  27        -0.00000000
  28         0.00000000
Sym=    22a  
Ene=     7.2072
Spin= Alpha
Occup=    0.00000
   1        -0.05279735
   2         0.27923865
   3         0.90465600
   4         0.00000000
   5        -0.00000000
   6         0.20891476
   7         0.00000000
   8        -0.00000000
   9         0.76090896
  10         0.25464771
  11        -0.00000000
  12        -0.00000000
  13         0.00000000
  14         0.00000000
  15         0.22564198
  16         1.33998470
  17        -2.56023204
  18         0.00000000
  19        -0.00000000
  20         0.48083775
  21        -0.00000000
  22         0.00000000
  23         0.06195723
  24         0.40572443
  25         0.00000000
  26        -0.00000000
  27        -0.00000000
  28        -0.00000000
Sym=    23a  
Ene=     7.2677
Spin= Alpha
Occup=    0.00000
   1        -0.00000000
   2         0.00000000
   3         0.00000000
   4         0.00000000
   5        -0.00000000
   6         0.00000000
   7        -0.00000000
   8        -0.00000000
   9         0.00000000
  10         0.00000000
  11         0.00000000
  12        -0.00000000
  13        -0.21473235
  14        -0.00000000
  15         0.00000000
  16         0.00000000
  17        -0.00000000
  18        -0.00000000
  19         0.00000000
  20         0.00000000
  21         0.00000000
  22        -0.00000000
  23        -0.00000000
  24         0.00000000
  25         0.00000000
  26        -0.00000000
  27         0.99948440
  28         0.00000000
Sym=    24a  
Ene=     7.2677
Spin= Alpha
Occup=    0.00000
   1         0.00000000
   2         0.00000000
   3         0.00000000
   4         0.00000000
   5         0.00000000
   6         0.00000000
   7         0.00000000
   8        -0.00000000
   9         0.00000000
  10        -0.00000000
  11         0.00000000
  12         0.00000000
  13         0.00000000
  14        -0.21473235
  15         0.00000000
  16         0.00000000
  17        -0.00000000
  18         0.00000000
  19        -0.00000000
  20         0.00000000
  21        -0.00000000
  22         0.00000000
  23         0.00000000
  24         0.00000000
  25         0.00000000
  26        -0.00000000
  27        -0.00000000
  28         0.99948440
Sym=    25a  
Ene=     7.6964
Spin= Alpha
Occup=    0.00000
   1         0.01501289
   2        -0.75690364
   3        -0.83747086
   4        -0.00000000
   5        -0.00000000
   6        -0.25931319
   7        -0.00000000
   8         0.00000000
   9        -0.56172823
  10         0.87105465
  11        -0.00000000
  12        -0.00000000
  13         0.00000000
  14         0.00000000
  15        -0.19552487
  16        -1.48362167
  17         2.42514519
  18        -0.00000000
  19         0.00000000
  20         0.51445313
  21         0.00000000
  22        -0.00000000
  23        -1.17031339
  24         0.30967343
  25        -0.00000000
  26        -0.00000000
  27        -0.00000000
  28         0.00000000
Sym=    26a  
Ene=     7.9614
Spin= Alpha
Occup=    0.00000
   1        -0.00000000
   2        -0.00000000
   3        -0.00000000
   4         0.27562524
   5         0.08757666
   6        -0.00000000
   7         0.05060773
   8         0.01608001
   9        -0.00000000
  10         0.00000000
  11         0.59875141
  12         0.19024617
  13         0.00000000
  14         0.00000000
  15        -0.00000000
  16        -0.00000000
  17         0.00000000
  18        -0.08898211
  19        -0.02827301
  20         0.00000000
  21        -0.21028641
  22        -0.06681602
  23        -0.00000000
  24         0.00000000
  25         1.04994852
  26         0.33360871
  27        -0.00000000
  28        -0.00000000
Sym=    27a  
Ene=     7.9614
Spin= Alpha
Occup=    0.00000
   1        -0.00000000
   2         0.00000000
   3         0.00000000
   4        -0.08757666
   5         0.27562524
   6         0.00000000
   7        -0.01608001
   8         0.05060773
   9         0.00000000
  10        -0.00000000
  11        -0.19024617
  12         0.59875141
  13        -0.00000000
  14        -0.00000000
  15         0.00000000
  16         0.00000000
  17        -0.00000000
  18         0.02827301
  19        -0.08898211
  20         0.00000000
  21         0.06681602
  22        -0.21028641
  23         0.00000000
  24        -0.00000000
  25        -0.33360871
  26         1.04994852
  27         0.00000000
  28         0.00000000
Sym=    28a  
Ene=     9.3614
Spin= Alpha
Occup=    0.00000
   1         0.15951899
   2        -1.45453533
   3        -0.46737886
   4        -0.00000000
   5        -0.00000000
   6        -1.11638956
   7         0.00000000
   8        -0.00000000
   9        -0.41777771
  10        -0.85376549
  11        -0.00000000
  12         0.00000000
  13        -0.00000000
  14        -0.00000000
  15        -0.00198938
  16        -0.15274764
  17         1.95381810
  18        -0.00000000
  19        -0.00000000
  20        -0.63198571
  21        -0.00000000
  22         0.00000000
  23        -0.86956948
  24         1.17767163
  25        -0.00000000
  26         0.00000000
  27         0.00000000
  28        -0.00000000
