15

C     -3.2235798913   -0.2784293500   -0.0355613421
C     -1.9121419923    0.5110793659   -0.0793409770
H     -3.1739231198   -1.1841223684   -0.6755402596
H     -4.0839785092    0.3329226864   -0.3964383999
H     -3.4663058592   -0.6090107897    0.9965385859
H     -1.9983250766    1.4255440348    0.5493173200
H     -1.7029295007    0.8540745523   -1.1147227938
C     -0.7511096244   -0.2432291879    0.3760701135
C      0.5317197456    0.5359974060    0.3775360304
C      1.6283314012    0.2316847960   -0.3412994955
H     -0.6369989041   -1.1549853429   -0.2515365324
H     -0.9900014312   -0.5816380201    1.4105752583
H      0.5536210149    1.4358936426    1.0216660888
H      1.6563325027   -0.6583637088   -0.9945745025
H      2.5382632666    0.8539054867   -0.3018989377
