15

C     -4.1988796038   -0.1701806550   -0.1506433343
C     -3.1118405472    0.8256608008   -0.3315853655
H     -4.0758465732   -1.0698236585   -0.7904148121
H     -5.2055341336    0.2712089916   -0.4555300094
H     -4.3359172182   -0.4790202572    0.9082632896
H     -3.0840620262    1.6719594241    0.3727821496
H     -2.8164175568    1.0671512884   -1.3627352135
C      0.3612105220   -0.5860423609    0.6521367458
C      1.4124787620    0.3595374574    0.5358112728
C      2.4804854991    0.2215701737   -0.3204451841
H      0.4402185264   -1.4851544119    0.0144627258
H     -0.1541556164   -0.7181889379    1.6089513162
H      1.4061232792    1.2473810799    1.2008257189
H      2.5676232604   -0.6622718725   -0.9841626546
H      3.2834623047    0.9775325912   -0.3569064505
