[Molden Format]
[N_Atoms]
                    2
[Atoms] (AU)
C1          1      6           0.00000000      0.00000000      0.00000000
O2          2      8           0.00000000      0.00000000      2.13217799
[5D]
[Charge] (Mulliken)
  0.16875848708176022     
 -0.16875848708181174     
[GTO] (AU)
   1
   s   5
  1.238401694E+03  5.517365048E-03
  1.862900499E+02  4.108882856E-02
  4.225117635E+01  1.822538213E-01
  1.167655793E+01  4.682845944E-01
  3.593050648E+00  4.457581734E-01
   s   1
  4.024514736E-01  1.000000000E+00
   s   1
  1.309018267E-01  1.000000000E+00
   p   3
  9.468097062E+00  5.688833201E-02
  2.010354514E+00  3.129405934E-01
  5.477100471E-01  7.606501651E-01
   p   1
  1.526861379E-01  1.000000000E+00
   d   1
  8.000000000E-01  1.000000000E+00
 
   2
   s   5
  2.266176779E+03 -5.389350392E-03
  3.408701019E+02 -4.023472139E-02
  7.736313517E+01 -1.800818421E-01
  2.147964494E+01 -4.682885766E-01
  6.658943312E+00 -4.469261716E-01
   s   1
  8.097597567E-01  1.000000000E+00
   s   1
  2.553077223E-01  1.000000000E+00
   p   3
  1.772150432E+01  6.263024876E-02
  3.863550544E+00  3.333113848E-01
  1.048092088E+00  7.414863831E-01
   p   1
  2.764154441E-01  1.000000000E+00
   d   1
  1.200000000E+00  1.000000000E+00
 
[MO]
Sym=     1a  
Ene=   -20.6670
Spin= Alpha
Occup=    2.00000
   1        -0.00029843
   2        -0.00021271
   3        -0.00732736
   4        -0.00000000
   5        -0.00000000
   6         0.00152904
   7        -0.00000000
   8         0.00000000
   9        -0.00520226
  10         0.00167159
  11        -0.00000000
  12         0.00000000
  13         0.00000002
  14        -0.00000000
  15         0.99027615
  16        -0.03476060
  17         0.01979101
  18        -0.00000000
  19         0.00000000
  20         0.00296000
  21        -0.00000000
  22         0.00000000
  23        -0.00374915
  24        -0.00087506
  25         0.00000000
  26        -0.00000000
  27        -0.00000012
  28        -0.00000000
Sym=     2a  
Ene=   -11.3690
Spin= Alpha
Occup=    2.00000
   1         0.99170330
   2         0.03146036
   3        -0.00579657
   4         0.00000000
   5         0.00000000
   6         0.00448804
   7         0.00000000
   8         0.00000000
   9         0.00228182
  10         0.00222650
  11         0.00000000
  12        -0.00000000
  13        -0.00000001
  14        -0.00000000
  15         0.00077830
  16         0.00003162
  17        -0.00628865
  18         0.00000000
  19        -0.00000000
  20        -0.00011803
  21         0.00000000
  22        -0.00000000
  23         0.00491680
  24         0.00052635
  25        -0.00000000
  26         0.00000000
  27        -0.00000000
  28        -0.00000000
Sym=     3a  
Ene=    -1.5091
Spin= Alpha
Occup=    2.00000
   1        -0.14508230
   2         0.27307147
   3         0.01468690
   4         0.00000000
   5        -0.00000000
   6         0.21786812
   7         0.00000000
   8        -0.00000000
   9         0.00352845
  10         0.03834737
  11         0.00000000
  12        -0.00000000
  13        -0.00000010
  14         0.00000000
  15         0.26548618
  16         0.52254440
  17         0.26180448
  18         0.00000000
  19        -0.00000000
  20        -0.16814202
  21         0.00000000
  22        -0.00000000
  23        -0.02566304
  24         0.01943984
  25        -0.00000000
  26         0.00000000
  27        -0.00000198
  28        -0.00000000
Sym=     4a  
Ene=    -0.7978
Spin= Alpha
Occup=    2.00000
   1         0.16225655
   2        -0.36426966
   3        -0.07237930
   4         0.00000000
   5        -0.00000000
   6        -0.13807918
   7         0.00000000
   8        -0.00000000
   9         0.03081026
  10        -0.01893950
  11         0.00000000
  12        -0.00000000
  13        -0.00000046
  14         0.00000000
  15         0.14562158
  16         0.31334125
  17         0.34766094
  18         0.00000000
  19        -0.00000000
  20         0.50420915
  21         0.00000000
  22        -0.00000000
  23         0.24910843
  24        -0.02363410
  25        -0.00000000
  26         0.00000000
  27        -0.00000213
  28        -0.00000000
Sym=     5a  
Ene=    -0.6430
Spin= Alpha
Occup=    2.00000
   1         0.00000000
   2        -0.00000000
   3        -0.00000000
   4        -0.00000000
   5         0.29572140
   6         0.00000000
   7        -0.00000000
   8         0.12206233
   9        -0.00000000
  10        -0.00000000
  11        -0.00000000
  12         0.05277809
  13         0.00000000
  14        -0.00000000
  15         0.00000000
  16         0.00000000
  17         0.00000000
  18        -0.00000000
  19         0.55021253
  20         0.00000000
  21        -0.00000000
  22         0.36987533
  23        -0.00000000
  24         0.00000000
  25         0.00000000
  26        -0.03227973
  27        -0.00000000
  28         0.00000000
Sym=     6a  
Ene=    -0.6430
Spin= Alpha
Occup=    2.00000
   1        -0.00000000
   2         0.00000000
   3         0.00000000
   4         0.29572797
   5         0.00000000
   6        -0.00000000
   7         0.12205533
   8         0.00000000
   9        -0.00000000
  10        -0.00000000
  11         0.05277877
  12         0.00000000
  13        -0.00000000
  14        -0.00000000
  15        -0.00000000
  16        -0.00000000
  17        -0.00000000
  18         0.55021678
  19         0.00000000
  20        -0.00000000
  21         0.36987148
  22         0.00000000
  23        -0.00000000
  24         0.00000000
  25        -0.03228009
  26        -0.00000000
  27         0.00000000
  28         0.00000000
Sym=     7a  
Ene=    -0.5510
Spin= Alpha
Occup=    2.00000
   1        -0.18545148
   2         0.41069966
   3         0.47528421
   4        -0.00000000
   5         0.00000000
   6        -0.45494362
   7         0.00000000
   8         0.00000000
   9        -0.16360180
  10        -0.03130153
  11        -0.00000000
  12         0.00000000
  13         0.00000001
  14        -0.00000000
  15        -0.02221955
  16        -0.05092303
  17        -0.00372652
  18        -0.00000000
  19         0.00000000
  20         0.23414928
  21        -0.00000000
  22         0.00000000
  23         0.12415220
  24        -0.00786382
  25         0.00000000
  26        -0.00000000
  27        -0.00000122
  28        -0.00000000
Sym=     8a  
Ene=     0.1474
Spin= Alpha
Occup=    0.00000
   1        -0.00000000
   2         0.00000000
   3        -0.00000000
   4        -0.44647499
   5         0.00000000
   6        -0.00000000
   7        -0.76736184
   8         0.00000000
   9        -0.00000000
  10         0.00000000
  11         0.01264069
  12        -0.00000000
  13        -0.00000000
  14         0.00000000
  15         0.00000000
  16         0.00000000
  17         0.00000000
  18         0.34829095
  19        -0.00000000
  20        -0.00000000
  21         0.49859971
  22        -0.00000000
  23         0.00000000
  24        -0.00000000
  25         0.00976553
  26        -0.00000000
  27         0.00000000
  28        -0.00000000
Sym=     9a  
Ene=     0.1474
Spin= Alpha
Occup=    0.00000
   1         0.00000000
   2        -0.00000000
   3        -0.00000000
   4        -0.00000000
   5        -0.44648343
   6        -0.00000000
   7        -0.00000000
   8        -0.76734100
   9        -0.00000000
  10        -0.00000000
  11         0.00000000
  12         0.01265093
  13         0.00000000
  14        -0.00000000
  15         0.00000000
  16        -0.00000000
  17         0.00000000
  18         0.00000000
  19         0.34830974
  20         0.00000000
  21         0.00000000
  22         0.49857158
  23        -0.00000000
  24         0.00000000
  25         0.00000000
  26         0.00976928
  27         0.00000000
  28         0.00000000
Sym=    10a  
Ene=     0.3542
Spin= Alpha
Occup=    0.00000
   1        -0.04387028
   2         0.27611945
   3        -2.03368950
   4         0.00000000
   5         0.00000000
   6        -0.13666881
   7         0.00000000
   8         0.00000000
   9        -1.73468159
  10        -0.00485816
  11         0.00000000
  12        -0.00000000
  13        -0.00000082
  14         0.00000000
  15         0.09504189
  16         0.09862825
  17         2.03783967
  18         0.00000000
  19        -0.00000000
  20        -0.03775125
  21        -0.00000000
  22        -0.00000000
  23        -0.56302564
  24         0.03151571
  25         0.00000000
  26        -0.00000000
  27         0.00000459
  28         0.00000000
Sym=    11a  
Ene=     0.5621
Spin= Alpha
Occup=    0.00000
   1        -0.26867300
   2         1.49372171
   3        -1.10403129
   4         0.00000000
   5        -0.00000000
   6        -0.38173317
   7        -0.00000000
   8         0.00000000
   9         0.81225748
  10        -0.02577578
  11         0.00000000
  12        -0.00000000
  13         0.00000049
  14        -0.00000000
  15        -0.02554152
  16        -0.05297998
  17        -0.32534868
  18         0.00000000
  19         0.00000000
  20         0.10397203
  21         0.00000000
  22         0.00000000
  23         0.17330786
  24         0.00459583
  25         0.00000000
  26         0.00000000
  27         0.00000108
  28         0.00000000
Sym=    12a  
Ene=     0.6701
Spin= Alpha
Occup=    0.00000
   1         0.00000000
   2         0.00000000
   3         0.00000000
   4         0.00000000
   5        -1.03563667
   6         0.00000000
   7        -0.00000000
   8         1.02457163
   9        -0.00000000
  10         0.00000000
  11         0.00000000
  12        -0.03209028
  13        -0.00000000
  14        -0.00000000
  15        -0.00000000
  16         0.00000000
  17        -0.00000000
  18        -0.00000000
  19         0.00408284
  20        -0.00000000
  21         0.00000000
  22        -0.01987273
  23         0.00000000
  24         0.00000000
  25        -0.00000000
  26         0.04996214
  27        -0.00000000
  28         0.00000000
Sym=    13a  
Ene=     0.6701
Spin= Alpha
Occup=    0.00000
   1        -0.00000000
   2         0.00000000
   3        -0.00000000
   4        -1.03563840
   5        -0.00000000
   6        -0.00000000
   7         1.02457100
   8         0.00000000
   9        -0.00000000
  10         0.00000000
  11        -0.03208353
  12        -0.00000000
  13        -0.00000000
  14         0.00000000
  15         0.00000000
  16        -0.00000000
  17         0.00000000
  18         0.00409513
  19         0.00000000
  20        -0.00000000
  21        -0.01987635
  22        -0.00000000
  23        -0.00000000
  24        -0.00000000
  25         0.04996328
  26         0.00000000
  27         0.00000000
  28         0.00000000
Sym=    14a  
Ene=     0.9904
Spin= Alpha
Occup=    0.00000
   1        -0.14583857
   2         1.21980600
   3         0.09745488
   4        -0.00000000
   5         0.00000000
   6         0.96234666
   7        -0.00000000
   8        -0.00000000
   9        -0.18711924
  10        -0.03216835
  11        -0.00000000
  12        -0.00000000
  13        -0.00000179
  14         0.00000000
  15        -0.14353026
  16        -0.45145554
  17        -0.44594254
  18        -0.00000000
  19         0.00000000
  20        -0.11179614
  21         0.00000000
  22         0.00000000
  23         1.42745269
  24         0.09247442
  25         0.00000000
  26        -0.00000000
  27         0.00000289
  28         0.00000000
Sym=    15a  
Ene=     1.1332
Spin= Alpha
Occup=    0.00000
   1        -0.08019616
   2         0.03324062
   3        -0.25935124
   4        -0.00000000
   5         0.00000000
   6         0.51177686
   7         0.00000000
   8         0.00000000
   9        -0.33693703
  10        -0.30989993
  11         0.00000000
  12        -0.00000000
  13         0.00000324
  14         0.00000000
  15         0.02514748
  16         0.19940589
  17        -0.02169834
  18         0.00000000
  19        -0.00000000
  20         0.83494652
  21        -0.00000000
  22        -0.00000000
  23        -0.74360480
  24         0.09720917
  25         0.00000000
  26         0.00000000
  27         0.00000497
  28         0.00000000
Sym=    16a  
Ene=     1.2383
Spin= Alpha
Occup=    0.00000
   1         0.00000000
   2        -0.00000000
   3        -0.00000000
   4         0.06602520
   5        -0.00000000
   6        -0.00000000
   7        -0.52370007
   8         0.00000000
   9        -0.00000000
  10        -0.00000000
  11        -0.10447442
  12         0.00000000
  13         0.00000000
  14        -0.00000000
  15        -0.00000000
  16        -0.00000000
  17         0.00000000
  18        -0.95468153
  19         0.00000000
  20         0.00000000
  21         1.29438016
  22        -0.00000000
  23        -0.00000000
  24        -0.00000000
  25         0.03150454
  26        -0.00000000
  27        -0.00000000
  28        -0.00000000
Sym=    17a  
Ene=     1.2384
Spin= Alpha
Occup=    0.00000
   1        -0.00000000
   2         0.00000000
   3         0.00000000
   4         0.00000000
   5         0.06602334
   6         0.00000000
   7        -0.00000000
   8        -0.52371734
   9         0.00000000
  10         0.00000000
  11        -0.00000000
  12        -0.10444867
  13         0.00000000
  14         0.00000000
  15         0.00000000
  16         0.00000000
  17        -0.00000000
  18        -0.00000000
  19        -0.95468131
  20        -0.00000000
  21         0.00000000
  22         1.29438099
  23         0.00000000
  24        -0.00000000
  25         0.00000000
  26         0.03151293
  27         0.00000000
  28        -0.00000000
Sym=    18a  
Ene=     1.4985
Spin= Alpha
Occup=    0.00000
   1        -0.03017488
   2         0.87371233
   3         2.03981989
   4         0.00000000
   5         0.00000000
   6         0.31937659
   7        -0.00000000
   8         0.00000000
   9         1.58631159
  10         0.25137944
  11        -0.00000000
  12         0.00000000
  13         0.00001772
  14         0.00000000
  15         0.28800528
  16         1.96904186
  17        -4.59493218
  18        -0.00000000
  19         0.00000000
  20        -0.06925488
  21         0.00000000
  22        -0.00000000
  23         1.47246731
  24         0.04006567
  25         0.00000000
  26        -0.00000000
  27         0.00003624
  28         0.00000000
Sym=    19a  
Ene=     1.8830
Spin= Alpha
Occup=    0.00000
   1         0.00000098
   2        -0.00002124
   3        -0.00005174
   4        -0.00000000
   5        -0.00000000
   6        -0.00000761
   7         0.00000000
   8         0.00000000
   9        -0.00004112
  10        -0.00000410
  11         0.00000000
  12         0.00000000
  13         0.96486626
  14        -0.00000000
  15        -0.00000798
  16        -0.00005498
  17         0.00012210
  18        -0.00000000
  19        -0.00000000
  20        -0.00000066
  21        -0.00000000
  22        -0.00000000
  23        -0.00003298
  24        -0.00000418
  25        -0.00000000
  26        -0.00000000
  27         0.18027407
  28         0.00000000
Sym=    20a  
Ene=     1.8830
Spin= Alpha
Occup=    0.00000
   1         0.00000000
   2        -0.00000000
   3        -0.00000000
   4         0.00000000
   5        -0.00000000
   6        -0.00000000
   7        -0.00000000
   8         0.00000000
   9        -0.00000000
  10        -0.00000000
  11        -0.00000000
  12         0.00000000
  13         0.00000000
  14         0.96487128
  15        -0.00000000
  16        -0.00000000
  17         0.00000000
  18         0.00000000
  19        -0.00000000
  20         0.00000000
  21         0.00000000
  22        -0.00000000
  23        -0.00000000
  24        -0.00000000
  25         0.00000000
  26        -0.00000000
  27        -0.00000000
  28         0.18025653
Sym=    21a  
Ene=     1.9659
Spin= Alpha
Occup=    0.00000
   1        -0.00000000
   2        -0.00000000
   3        -0.00000000
   4         0.11948092
   5         0.00000000
   6        -0.00000000
   7        -0.18521783
   8        -0.00000000
   9        -0.00000000
  10        -0.00000000
  11        -0.90473141
  12        -0.00000000
  13         0.00000000
  14        -0.00000000
  15        -0.00000000
  16        -0.00000000
  17         0.00000000
  18         0.22905364
  19         0.00000000
  20        -0.00000000
  21         0.18598818
  22         0.00000000
  23        -0.00000000
  24        -0.00000000
  25         0.27269102
  26         0.00000000
  27         0.00000000
  28        -0.00000000
Sym=    22a  
Ene=     1.9659
Spin= Alpha
Occup=    0.00000
   1        -0.00000000
   2        -0.00000000
   3        -0.00000000
   4        -0.00000000
   5         0.11948527
   6        -0.00000000
   7         0.00000000
   8        -0.18523497
   9        -0.00000000
  10         0.00000000
  11         0.00000000
  12        -0.90473020
  13         0.00000000
  14         0.00000000
  15        -0.00000000
  16        -0.00000000
  17         0.00000000
  18        -0.00000000
  19         0.22903787
  20         0.00000000
  21        -0.00000000
  22         0.18601305
  23        -0.00000000
  24        -0.00000000
  25        -0.00000000
  26         0.27269579
  27         0.00000000
  28         0.00000000
Sym=    23a  
Ene=     2.7720
Spin= Alpha
Occup=    0.00000
   1        -0.07277394
   2         0.03315689
   3         0.09478019
   4         0.00000000
   5        -0.00000000
   6         0.29241817
   7         0.00000000
   8         0.00000000
   9         0.20557554
  10         1.14417745
  11        -0.00000000
  12         0.00000000
  13         0.00001310
  14        -0.00000000
  15        -0.14352301
  16        -0.91542309
  17         0.22222488
  18         0.00000000
  19         0.00000000
  20         0.79030367
  21        -0.00000000
  22        -0.00000000
  23        -0.37993049
  24         0.12975879
  25         0.00000000
  26        -0.00000000
  27        -0.00004603
  28         0.00000000
Sym=    24a  
Ene=     2.9625
Spin= Alpha
Occup=    0.00000
   1         0.00000000
   2        -0.00000000
   3        -0.00000000
   4         0.00000000
   5         0.00000000
   6        -0.00000000
   7        -0.00000000
   8         0.00000000
   9        -0.00000000
  10        -0.00000000
  11        -0.00000000
  12         0.00000000
  13         0.00000000
  14        -0.28315292
  15         0.00000000
  16         0.00000000
  17         0.00000000
  18        -0.00000000
  19        -0.00000000
  20        -0.00000000
  21         0.00000000
  22        -0.00000000
  23        -0.00000000
  24         0.00000000
  25        -0.00000000
  26        -0.00000000
  27        -0.00000000
  28         0.98927233
Sym=    25a  
Ene=     2.9625
Spin= Alpha
Occup=    0.00000
   1        -0.00000534
   2         0.00000767
   3        -0.00003146
   4         0.00000000
   5         0.00000000
   6         0.00002844
   7         0.00000000
   8         0.00000000
   9        -0.00001738
  10         0.00006322
  11         0.00000000
  12         0.00000000
  13        -0.28317003
  14        -0.00000000
  15        -0.00001574
  16        -0.00010049
  17         0.00009546
  18        -0.00000000
  19        -0.00000000
  20         0.00004735
  21        -0.00000000
  22        -0.00000000
  23        -0.00003130
  24        -0.00002884
  25        -0.00000000
  26         0.00000000
  27         0.98926913
  28         0.00000000
Sym=    26a  
Ene=     3.5563
Spin= Alpha
Occup=    0.00000
   1         0.00000000
   2        -0.00000000
   3         0.00000000
   4         0.27349908
   5        -0.00000000
   6        -0.00000000
   7         0.16696117
   8        -0.00000000
   9         0.00000000
  10        -0.00000000
  11         0.72509723
  12        -0.00000000
  13        -0.00000000
  14        -0.00000000
  15         0.00000000
  16         0.00000000
  17         0.00000000
  18        -0.03566309
  19         0.00000000
  20        -0.00000000
  21        -0.36287418
  22         0.00000000
  23        -0.00000000
  24         0.00000000
  25         1.08400925
  26        -0.00000000
  27         0.00000000
  28         0.00000000
Sym=    27a  
Ene=     3.5563
Spin= Alpha
Occup=    0.00000
   1        -0.00000000
   2         0.00000000
   3         0.00000000
   4         0.00000000
   5         0.27349752
   6         0.00000000
   7         0.00000000
   8         0.16697475
   9         0.00000000
  10         0.00000000
  11         0.00000000
  12         0.72510202
  13        -0.00000000
  14        -0.00000000
  15         0.00000000
  16         0.00000000
  17        -0.00000000
  18        -0.00000000
  19        -0.03565390
  20         0.00000000
  21        -0.00000000
  22        -0.36289343
  23         0.00000000
  24        -0.00000000
  25         0.00000000
  26         1.08400783
  27        -0.00000000
  28         0.00000000
Sym=    28a  
Ene=     4.0065
Spin= Alpha
Occup=    0.00000
   1         0.15541017
   2        -1.56395538
   3        -0.66580216
   4        -0.00000000
   5        -0.00000000
   6        -1.15068313
   7        -0.00000000
   8         0.00000000
   9        -0.55393276
  10        -0.64430936
  11        -0.00000000
  12         0.00000000
  13        -0.00000522
  14         0.00000000
  15         0.02988416
  16        -0.10197561
  17         2.09904015
  18         0.00000000
  19        -0.00000000
  20        -0.41164821
  21         0.00000000
  22         0.00000000
  23        -1.21921900
  24         1.27917849
  25        -0.00000000
  26         0.00000000
  27         0.00002570
  28        -0.00000000
